BEGIN IONS
SYNON=2-dimethoxyphosphinothioylsulfanyl-N-methylacetamide
INCHI=InChI=1S/C5H12NO3PS2/c1-6-5(7)4-12-10(11,8-2)9-3/h4H2,1-3H3,(H,6,7)
SMILES=O=C(NC)CSP(=S)(OC)OC
INSTRUMENT_TYPE=LC-APCI-QFT
INSTRUMENT=QExactive Orbitrap HF-X (Thermo Scientific)
COLLISION_ENERGY=Ramp 20%-70% (nominal)
FORMULA=C5H12NO3PS2
PARENT=230.0068
SPLASH=splash10-006w-2900000000-03506d2e4a4eb62d4a37
NUM_PEAKS=16
COMPOUND_NAME=Dimethoate
SPECTRUM_ID=MSBNK-ACES_SU-AS000105
MS_LEVEL=MS2
PRECURSOR_MZ=230.0068
IONMODE=positive
NOMINAL_MASS=229
PARENT_MASS=228.9996
61.01083 10.0 
62.01862 25.0 
78.99438 161.0 
88.02163 361.0 
93.01033 53.0 
123.99783 20.0 
124.98224 343.0 
128.97676 21.0 
142.99274 583.0 
156.95427 48.0 
170.96986 307.0 
188.98094 20.0 
197.98061 56.0 
198.96524 999.0 
214.18575 12.0 
230.00703 59.0 
END IONS

BEGIN IONS
SYNON=Diethoxy-(6-methyl-2-propan-2-ylpyrimidin-4-yl)oxy-sulfanylidene-lambda5-phosphane
INCHI=InChI=1S/C12H21N2O3PS/c1-6-15-18(19,16-7-2)17-11-8-10(5)13-12(14-11)9(3)4/h8-9H,6-7H2,1-5H3
SMILES=S=P(OC=1N=C(N=C(C1)C)C(C)C)(OCC)OCC
INSTRUMENT_TYPE=LC-APCI-QFT
INSTRUMENT=QExactive Orbitrap HF-X (Thermo Scientific)
COLLISION_ENERGY=Ramp 20%-70% (nominal)
FORMULA=C12H21N2O3PS
PARENT=305.1082
SPLASH=splash10-0a4i-2907000000-11be020f671382fc3c1b
NUM_PEAKS=11
COMPOUND_NAME=Diazinon
SPECTRUM_ID=MSBNK-ACES_SU-AS000103
MS_LEVEL=MS2
PRECURSOR_MZ=305.1082
IONMODE=positive
NOMINAL_MASS=304
PARENT_MASS=304.1011
70.06519 64.0 
84.04445 123.0 
96.95043 109.0 
98.98446 24.0 
100.02152 200.0 
109.00473 23.0 
114.96144 247.0 
153.10196 230.0 
169.07983 471.0 
214.17374 10.0 
305.10812 999.0 
END IONS

BEGIN IONS
SYNON=Diethoxy-sulfanylidene-(3,5,6-trichloropyridin-2-yl)oxy-lambda5-phosphane
INCHI=InChI=1S/C9H11Cl3NO3PS/c1-3-14-17(18,15-4-2)16-9-7(11)5-6(10)8(12)13-9/h5H,3-4H2,1-2H3
SMILES=S=P(OC1=NC(Cl)=C(Cl)C=C1Cl)(OCC)OCC
INSTRUMENT_TYPE=LC-APCI-QFT
INSTRUMENT=QExactive Orbitrap HF-X (Thermo Scientific)
COLLISION_ENERGY=Ramp 20%-70% (nominal)
FORMULA=C9H11Cl3NO3PS
PARENT=349.9336
SPLASH=splash10-01ot-0901000000-8cd0023dea305192e9f4
NUM_PEAKS=30
COMPOUND_NAME=Chlorpyrifos
SPECTRUM_ID=MSBNK-ACES_SU-AS000094
MS_LEVEL=MS2
PRECURSOR_MZ=349.9336
IONMODE=positive
NOMINAL_MASS=349
PARENT_MASS=348.9263
64.97881 22.0 
78.94022 10.0 
96.95042 197.0 
106.94464 63.0 
114.9614 999.0 
124.98228 17.0 
128.97701 11.0 
132.97229 15.0 
133.9558 138.0 
142.9928 21.0 
150.91753 21.0 
153.01347 95.0 
161.95068 7.0 
171.02397 241.0 
177.92847 21.0 
179.91724 13.0 
179.96161 143.0 
185.03955 6.0 
195.93863 5.0 
197.92804 983.0 
212.58415 5.0 
212.89648 9.0 
213.90474 60.0 
225.95868 6.0 
229.89865 5.0 
275.85995 12.0 
293.87167 204.0 
303.8923 7.0 
321.90234 254.0 
349.93301 152.0 
END IONS

BEGIN IONS
SYNON=(2,2-dimethyl-3H-1-benzofuran-7-yl) N-methylcarbamate
INCHI=InChI=1S/C12H15NO3/c1-12(2)7-8-5-4-6-9(10(8)16-12)15-11(14)13-3/h4-6H,7H2,1-3H3,(H,13,14)
SMILES=O=C(OC1=CC=CC2=C1OC(C)(C)C2)NC
INSTRUMENT_TYPE=LC-APCI-QFT
INSTRUMENT=QExactive Orbitrap HF-X (Thermo Scientific)
COLLISION_ENERGY=Ramp 20%-70% (nominal)
FORMULA=C12H15NO3
PARENT=222.1125
SPLASH=splash10-01b9-0900000000-cacb4b18858d5a2a85cc
NUM_PEAKS=15
COMPOUND_NAME=Carbofuran
SPECTRUM_ID=MSBNK-ACES_SU-AS000091
MS_LEVEL=MS2
PRECURSOR_MZ=222.1125
IONMODE=positive
NOMINAL_MASS=221
PARENT_MASS=221.1052
55.05455 75.0 
58.02907 18.0 
67.05441 11.0 
91.05391 42.0 
95.04939 31.0 
111.04433 6.0 
119.04967 9.0 
119.08575 18.0 
123.0441 681.0 
137.06006 30.0 
147.08044 13.0 
165.09152 999.0 
213.68864 6.0 
213.70163 6.0 
222.11331 169.0 
END IONS

BEGIN IONS
SYNON=2-ethylhexyl 2-cyano-3,3-diphenylprop-2-enoate
INCHI=InChI=1S/C2H8NO2PS/c1-5-6(3,4)7-2/h1-2H3,(H2,3,4)
SMILES=O=P(OC)(SC)N
INSTRUMENT_TYPE=LC-APCI-QFT
INSTRUMENT=QExactive Orbitrap HF-X (Thermo Scientific)
COLLISION_ENERGY=Ramp 20%-70% (nominal)
FORMULA=C2H8NO2PS
PARENT=142.0087
SPLASH=splash10-03dl-0900000000-b0ad10dcc591d1e293be
NUM_PEAKS=17
COMPOUND_NAME=Methamidophos
SPECTRUM_ID=MSBNK-ACES_SU-AS000121
MS_LEVEL=MS2
PRECURSOR_MZ=142.0087
IONMODE=positive
NOMINAL_MASS=141
PARENT_MASS=141.0013
60.48097 18.0 
63.99403 6.0 
63.99486 27.0 
78.99433 54.0 
109.98254 20.0 
112.01599 999.0 
114.60333 14.0 
124.03926 15.0 
127.99315 24.0 
129.68582 14.0 
139.83224 21.0 
142.00917 191.0 
142.05006 35.0 
142.08643 24.0 
142.1228 41.0 
142.15919 49.0 
142.99274 366.0 
END IONS

BEGIN IONS
SYNON=Diethyl 2-dimethoxyphosphinothioylsulfanylbutanedioate
INCHI=InChI=1S/C10H19O6PS2/c1-5-15-9(11)7-8(10(12)16-6-2)19-17(18,13-3)14-4/h8H,5-7H2,1-4H3
SMILES=O=C(OCC)CC(SP(=S)(OC)OC)C(=O)OCC
INSTRUMENT_TYPE=LC-APCI-QFT
INSTRUMENT=QExactive Orbitrap HF-X (Thermo Scientific)
COLLISION_ENERGY=Ramp 20%-70% (nominal)
FORMULA=C10H19O6PS2
PARENT=331.0432
SPLASH=splash10-004i-0910000000-951dbbb11f1bd47681e0
NUM_PEAKS=20
COMPOUND_NAME=Malathion
SPECTRUM_ID=MSBNK-ACES_SU-AS000116
MS_LEVEL=MS2
PRECURSOR_MZ=331.0432
IONMODE=positive
NOMINAL_MASS=330
PARENT_MASS=330.0361
71.01292 69.0 
113.02348 13.0 
114.98502 15.0 
124.98224 122.0 
127.0392 999.0 
128.97676 13.0 
142.99274 177.0 
143.01637 15.0 
146.99352 12.0 
158.9698 16.0 
174.99092 25.0 
174.99373 22.0 
176.98833 43.0 
187.00096 11.0 
189.05801 12.0 
210.9648 44.0 
212.13547 14.0 
252.9944 11.0 
257.00705 69.0 
285.00226 34.0 
END IONS

BEGIN IONS
INCHIKEY=MCWXGJITAZMZEV-UHFFFAOYSA-N
INCHI=InChI=1S/C5H12NO3PS2/c1-6-5(7)4-12-10(11,8-2)9-3/h4H2,1-3H3,(H,6,7)
SMILES=CNC(=O)CSP(=S)(OC)OC
INSTRUMENT_TYPE=ESI-QTOF
COLLISION_ENERGY=10
FORMULA=C5H12NO3PS2
PARENT=230.0068976588
SPLASH=splash10-00dj-2900000000-2ab7d0c509a9a20ac5ac
NUM_PEAKS=15
COMPOUND_NAME=Dimethoate
SPECTRUM_ID=MSBNK-AGILENT-AG000014
ADDUCT=[M+H]+
MS_LEVEL=MS2
PRECURSOR_MZ=230.0068976588
IONMODE=positive
NOMINAL_MASS=229
PARENT_MASS=228.99962
44.049476 14.0 
61.010647 10.0 
78.994342 15.0 
88.021546 542.0 
89.02332 22.0 
119.993617 17.0 
124.982063 602.0 
125.986517 12.0 
142.992628 51.0 
156.954134 49.0 
170.969784 690.0 
197.980683 74.0 
198.964698 999.0 
199.972524 43.0 
230.006898 56.0 
END IONS

BEGIN IONS
INCHIKEY=DUEPRVBVGDRKAG-UHFFFAOYSA-N
INCHI=InChI=1S/C12H15NO3/c1-12(2)7-8-5-4-6-9(10(8)16-12)15-11(14)13-3/h4-6H,7H2,1-3H3,(H,13,14)
SMILES=CNC(=O)OC1=CC=CC2CC(C)(C)OC1=2
INSTRUMENT_TYPE=ESI-QTOF
COLLISION_ENERGY=40
FORMULA=C12H15NO3
PARENT=222.1124698045
SPLASH=splash10-00di-9600000000-8437cce2d1d70c526aa5
NUM_PEAKS=23
COMPOUND_NAME=Carbofuran
SPECTRUM_ID=MSBNK-AGILENT-AG000054
ADDUCT=[M+H]+
MS_LEVEL=MS2
PRECURSOR_MZ=222.1124698045
IONMODE=positive
NOMINAL_MASS=221
PARENT_MASS=221.10519
51.022927 67.0 
53.038577 27.0 
55.017841 41.0 
55.054227 287.0 
58.02874 91.0 
65.038577 82.0 
67.054227 166.0 
77.038577 404.0 
79.054227 17.0 
81.033491 15.0 
91.054227 281.0 
93.033491 17.0 
95.049141 164.0 
103.054227 18.0 
104.062052 10.0 
105.033491 98.0 
107.049141 16.0 
117.069877 15.0 
119.049141 22.0 
119.085527 15.0 
123.044056 999.0 
131.049141 10.0 
137.059706 20.0 
END IONS

BEGIN IONS
INCHIKEY=MCWXGJITAZMZEV-UHFFFAOYSA-N
INCHI=InChI=1S/C5H12NO3PS2/c1-6-5(7)4-12-10(11,8-2)9-3/h4H2,1-3H3,(H,6,7)
SMILES=CNC(=O)CSP(=S)(OC)OC
INSTRUMENT_TYPE=ESI-QTOF
COLLISION_ENERGY=20
FORMULA=C5H12NO3PS2
PARENT=230.0068976588
SPLASH=splash10-00di-2900000000-daee18f2cbab2dbc9858
NUM_PEAKS=17
COMPOUND_NAME=Dimethoate
SPECTRUM_ID=MSBNK-AGILENT-AG000013
ADDUCT=[M+H]+
MS_LEVEL=MS2
PRECURSOR_MZ=230.0068976588
IONMODE=positive
NOMINAL_MASS=229
PARENT_MASS=228.99962
44.049476 26.0 
46.994997 41.0 
61.010647 12.0 
62.018472 15.0 
78.994342 75.0 
88.021546 167.0 
93.009992 25.0 
110.966413 14.0 
119.993617 12.0 
123.998047 19.0 
124.982063 999.0 
125.986517 30.0 
142.992628 29.0 
155.970118 10.0 
156.954134 81.0 
170.969784 162.0 
198.964698 20.0 
END IONS

BEGIN IONS
INCHIKEY=JXSJBGJIGXNWCI-UHFFFAOYSA-N
INCHI=InChI=1S/C10H19O6PS2/c1-5-15-9(11)7-8(10(12)16-6-2)19-17(18,13-3)14-4/h8H,5-7H2,1-4H3
SMILES=CCOC(=O)C(CC(=O)OCC)SP(=S)(OC)OC
INSTRUMENT_TYPE=ESI-QTOF
COLLISION_ENERGY=10
FORMULA=C10H19O6PS2
PARENT=331.0433427416
SPLASH=splash10-004j-4910000000-cd78c9cf918a86225c37
NUM_PEAKS=13
COMPOUND_NAME=Malathion
SPECTRUM_ID=MSBNK-AGILENT-AG000018
ADDUCT=[M+H]+
MS_LEVEL=MS2
PRECURSOR_MZ=331.0433427416
IONMODE=positive
NOMINAL_MASS=330
PARENT_MASS=330.03607
99.00767 628.0 
114.984826 10.0 
124.982063 73.0 
127.038971 999.0 
143.016127 11.0 
146.993283 11.0 
158.969784 16.0 
173.080835 10.0 
187.001084 10.0 
189.057991 12.0 
210.964698 53.0 
257.006563 47.0 
285.001478 138.0 
END IONS

BEGIN IONS
INCHIKEY=JXSJBGJIGXNWCI-UHFFFAOYSA-N
INCHI=InChI=1S/C10H19O6PS2/c1-5-15-9(11)7-8(10(12)16-6-2)19-17(18,13-3)14-4/h8H,5-7H2,1-4H3
SMILES=CCOC(=O)C(CC(=O)OCC)SP(=S)(OC)OC
INSTRUMENT_TYPE=ESI-QTOF
COLLISION_ENERGY=40
FORMULA=C10H19O6PS2
PARENT=331.0433427416
SPLASH=splash10-006t-9300000000-4869afa01e3877f3c914
NUM_PEAKS=13
COMPOUND_NAME=Malathion
SPECTRUM_ID=MSBNK-AGILENT-AG000017
ADDUCT=[M+H]+
MS_LEVEL=MS2
PRECURSOR_MZ=331.0433427416
IONMODE=positive
NOMINAL_MASS=330
PARENT_MASS=330.03607
53.002191 17.0 
55.017841 10.0 
58.994997 19.0 
62.018472 23.0 
71.012756 165.0 
78.994342 178.0 
86.989912 41.0 
93.009992 11.0 
99.00767 999.0 
110.966413 35.0 
114.984826 11.0 
118.961983 29.0 
124.982063 513.0 
END IONS

BEGIN IONS
INCHIKEY=MCWXGJITAZMZEV-UHFFFAOYSA-N
INCHI=InChI=1S/C5H12NO3PS2/c1-6-5(7)4-12-10(11,8-2)9-3/h4H2,1-3H3,(H,6,7)
SMILES=CNC(=O)CSP(=S)(OC)OC
INSTRUMENT_TYPE=ESI-QTOF
COLLISION_ENERGY=40
FORMULA=C5H12NO3PS2
PARENT=230.0068976588
SPLASH=splash10-0092-9200000000-9979b9e8b7e56d5f6ac9
NUM_PEAKS=24
COMPOUND_NAME=Dimethoate
SPECTRUM_ID=MSBNK-AGILENT-AG000015
ADDUCT=[M+H]+
MS_LEVEL=MS2
PRECURSOR_MZ=230.0068976588
IONMODE=positive
NOMINAL_MASS=229
PARENT_MASS=228.99962
44.049476 104.0 
44.979347 113.0 
45.987172 10.0 
46.968128 143.0 
46.994997 999.0 
56.049476 10.0 
58.994997 38.0 
59.999762 20.0 
61.010647 26.0 
62.005896 14.0 
62.018472 122.0 
62.999428 67.0 
76.021546 19.0 
78.010327 24.0 
78.994342 777.0 
88.021546 34.0 
92.025977 14.0 
93.009992 233.0 
109.004907 16.0 
110.966413 64.0 
123.998047 32.0 
124.982063 773.0 
125.986517 10.0 
156.954134 12.0 
END IONS

BEGIN IONS
INCHIKEY=DUEPRVBVGDRKAG-UHFFFAOYSA-N
INCHI=InChI=1S/C12H15NO3/c1-12(2)7-8-5-4-6-9(10(8)16-12)15-11(14)13-3/h4-6H,7H2,1-3H3,(H,13,14)
SMILES=CNC(=O)OC1=CC=CC2CC(C)(C)OC1=2
INSTRUMENT_TYPE=ESI-QTOF
COLLISION_ENERGY=20
FORMULA=C12H15NO3
PARENT=222.1124698045
SPLASH=splash10-00di-1900000000-842111b7d612a8d11ce6
NUM_PEAKS=11
COMPOUND_NAME=Carbofuran
SPECTRUM_ID=MSBNK-AGILENT-AG000052
ADDUCT=[M+H]+
MS_LEVEL=MS2
PRECURSOR_MZ=222.1124698045
IONMODE=positive
NOMINAL_MASS=221
PARENT_MASS=221.10519
55.054227 118.0 
58.02874 21.0 
77.038577 10.0 
91.054227 31.0 
95.049141 12.0 
111.044056 10.0 
119.085527 32.0 
123.044056 999.0 
137.059706 66.0 
147.080441 24.0 
165.091006 244.0 
END IONS

BEGIN IONS
INCHIKEY=JXSJBGJIGXNWCI-UHFFFAOYSA-N
INCHI=InChI=1S/C10H19O6PS2/c1-5-15-9(11)7-8(10(12)16-6-2)19-17(18,13-3)14-4/h8H,5-7H2,1-4H3
SMILES=CCOC(=O)C(CC(=O)OCC)SP(=S)(OC)OC
INSTRUMENT_TYPE=ESI-QTOF
COLLISION_ENERGY=20
FORMULA=C10H19O6PS2
PARENT=331.0433427416
SPLASH=splash10-0002-9400000000-58ff4fd9988b0a7c1b9f
NUM_PEAKS=11
COMPOUND_NAME=Malathion
SPECTRUM_ID=MSBNK-AGILENT-AG000016
ADDUCT=[M+H]+
MS_LEVEL=MS2
PRECURSOR_MZ=331.0433427416
IONMODE=positive
NOMINAL_MASS=330
PARENT_MASS=330.03607
71.012756 21.0 
78.994342 12.0 
86.989912 15.0 
99.00767 999.0 
114.984826 19.0 
117.000477 14.0 
124.982063 247.0 
127.038971 219.0 
146.993283 17.0 
210.964698 56.0 
257.006563 11.0 
END IONS

BEGIN IONS
INCHIKEY=DUEPRVBVGDRKAG-UHFFFAOYSA-N
INCHI=InChI=1S/C12H15NO3/c1-12(2)7-8-5-4-6-9(10(8)16-12)15-11(14)13-3/h4-6H,7H2,1-3H3,(H,13,14)
SMILES=CNC(=O)OC1=CC=CC2CC(C)(C)OC1=2
INSTRUMENT_TYPE=ESI-QTOF
COLLISION_ENERGY=10
FORMULA=C12H15NO3
PARENT=222.1124698045
SPLASH=splash10-014i-0900000000-80ba0b777b173b74fdf2
NUM_PEAKS=7
COMPOUND_NAME=Carbofuran
SPECTRUM_ID=MSBNK-AGILENT-AG000053
ADDUCT=[M+H]+
MS_LEVEL=MS2
PRECURSOR_MZ=222.1124698045
IONMODE=positive
NOMINAL_MASS=221
PARENT_MASS=221.10519
55.054227 21.0 
119.085527 11.0 
123.044056 322.0 
137.059706 22.0 
147.080441 11.0 
165.091006 999.0 
222.11247 96.0 
END IONS

BEGIN IONS
SYNON=2,2-dichloroethenyl dimethyl phosphate
INCHIKEY=OEBRKCOSUFCWJD-UHFFFAOYSA-N
INCHI=InChI=1S/C4H7Cl2O4P/c1-8-11(7,9-2)10-3-4(5)6/h3H,1-2H3
SMILES=COP(=O)(OC)OC=C(Cl)Cl
INSTRUMENT_TYPE=GC-APCI-QTOF
INSTRUMENT=Bruker 450 GC coupled to maXis Impact
COLLISION_ENERGY=10 eV
FORMULA=C4H7Cl2O4P
PARENT=220.9532
SPLASH=splash10-00di-0980000000-6de0962e535cd5876b2c
NUM_PEAKS=7
COMPOUND_NAME=Dichlorvos
SPECTRUM_ID=MSBNK-Athens_Univ-AU591101
ADDUCT=[M+H]+
MS_LEVEL=MS2
PRECURSOR_MZ=220.9532
IONMODE=positive
NOMINAL_MASS=220
PARENT_MASS=219.9459
75.9699 6.0 
109.0048 7.0 
127.0147 306.0 
144.9789 212.0 
184.9727 495.0 
219.9438 5.0 
220.9503 999.0 
END IONS

BEGIN IONS
SYNON=diethoxyphosphinothioylsulfanylmethylsulfanyl-diethoxy-sulfanylidene-lambda5-phosphane
INCHIKEY=RIZMRRKBZQXFOY-UHFFFAOYSA-N
INCHI=InChI=1S/C9H22O4P2S4/c1-5-10-14(16,11-6-2)18-9-19-15(17,12-7-3)13-8-4/h5-9H2,1-4H3
SMILES=CCOP(=S)(OCC)SCSP(=S)(OCC)OCC
INSTRUMENT_TYPE=LC-ESI-QTOF
INSTRUMENT=Bruker maXis Impact
COLLISION_ENERGY=40 eV
FORMULA=C9H22O4P2S4
PARENT=384.9949
SPLASH=splash10-0006-0900000000-97e955b99735da5d33c7
NUM_PEAKS=18
COMPOUND_NAME=Ethion
SPECTRUM_ID=MSBNK-Athens_Univ-AU260704
ADDUCT=[M+H]+
MS_LEVEL=MS2
PRECURSOR_MZ=384.9949
IONMODE=positive
NOMINAL_MASS=384
PARENT_MASS=383.9876164
114.9602 15.0 
124.981 49.0 
126.9424 16.0 
128.9217 15.0 
142.9372 999.0 
143.9381 21.0 
144.9329 63.0 
153.0117 51.0 
156.9533 10.0 
170.9682 177.0 
171.0226 32.0 
171.9703 9.0 
172.964 12.0 
174.9087 20.0 
184.9831 6.0 
198.9995 62.0 
200.9952 5.0 
202.9409 5.0 
END IONS

BEGIN IONS
SYNON=dimethoxy-(3-methyl-4-methylsulfanylphenoxy)-sulfanylidene-$l^{5}-phosphane
INCHIKEY=PNVJTZOFSHSLTO-UHFFFAOYSA-N
INCHI=InChI=1S/C10H15O3PS2/c1-8-7-9(5-6-10(8)16-4)13-14(15,11-2)12-3/h5-7H,1-4H3
SMILES=COP(=S)(OC)OC1=CC(C)=C(SC)C=C1
INSTRUMENT_TYPE=LC-ESI-QTOF
INSTRUMENT=Bruker maXis Impact
COLLISION_ENERGY=30 eV
FORMULA=C10H15O3PS2
PARENT=279.0273
SPLASH=splash10-0gb9-0910000000-30762456be8c99676446
NUM_PEAKS=50
COMPOUND_NAME=Fenthion
SPECTRUM_ID=MSBNK-Athens_Univ-AU315503
ADDUCT=[M+H]+
MS_LEVEL=MS2
PRECURSOR_MZ=279.0273
IONMODE=positive
NOMINAL_MASS=278
PARENT_MASS=278.0200230
121.0101 86.0 
121.0274 12.0 
122.0174 54.0 
123.0252 109.0 
124.0302 9.0 
124.9812 422.0 
125.041 91.0 
125.9849 11.0 
126.9768 13.0 
127.0136 15.0 
135.0248 31.0 
136.0313 34.0 
137.0406 63.0 
138.0486 352.0 
140.0442 14.0 
142.9918 193.0 
143.9936 9.0 
149.0221 161.0 
150.0256 15.0 
152.9805 44.0 
153.0356 723.0 
153.9895 189.0 
154.0394 77.0 
154.9945 21.0 
155.0312 25.0 
155.9862 14.0 
166.9969 14.0 
168.9862 329.0 
169.0128 999.0 
170.0175 135.0 
170.9844 18.0 
171.009 76.0 
184.0381 13.0 
184.9658 8.0 
185.0445 38.0 
185.9882 19.0 
199.9549 12.0 
200.0039 133.0 
201.0102 24.0 
201.9653 18.0 
202.9923 8.0 
214.9744 106.0 
215.978 14.0 
216.9691 15.0 
231.9771 199.0 
232.9824 28.0 
233.9742 17.0 
247.0003 123.0 
248.0027 17.0 
248.9944 8.0 
END IONS

BEGIN IONS
SYNON=dimethoxy-(4-nitrophenoxy)-sulfanylidene-lambda5-phosphane
INCHIKEY=RLBIQVVOMOPOHC-UHFFFAOYSA-N
INCHI=InChI=1S/C8H10NO5PS/c1-12-15(16,13-2)14-8-5-3-7(4-6-8)9(10)11/h3-6H,1-2H3
SMILES=COP(=S)(OC)OC1=CC=C(C=C1)[N+]([O-])=O
INSTRUMENT_TYPE=LC-ESI-QTOF
INSTRUMENT=Bruker maXis Impact
COLLISION_ENERGY=20 eV
FORMULA=C8H10NO5PS
PARENT=264.009
SPLASH=splash10-0002-0490000000-467413d876bb4acf1192
NUM_PEAKS=11
COMPOUND_NAME=Parathion-methyl
SPECTRUM_ID=MSBNK-Athens_Univ-AU261602
ADDUCT=[M+H]+
MS_LEVEL=MS2
PRECURSOR_MZ=264.009
IONMODE=positive
NOMINAL_MASS=263
PARENT_MASS=263.0017300
123.0305 68.0 
124.9811 286.0 
142.9915 129.0 
144.9884 40.0 
185.9898 149.0 
199.9552 61.0 
218.0174 39.0 
231.9815 92.0 
249.9925 999.0 
250.997 76.0 
264.0079 288.0 
END IONS

BEGIN IONS
SYNON=2,2-dichloroethenyl dimethyl phosphate
INCHIKEY=OEBRKCOSUFCWJD-UHFFFAOYSA-N
INCHI=InChI=1S/C4H7Cl2O4P/c1-8-11(7,9-2)10-3-4(5)6/h3H,1-2H3
SMILES=COP(=O)(OC)OC=C(Cl)Cl
INSTRUMENT_TYPE=LC-ESI-QTOF
INSTRUMENT=Bruker maXis Impact
COLLISION_ENERGY=20 eV
FORMULA=C4H7Cl2O4P
PARENT=220.9532
SPLASH=splash10-00di-0690000000-d8df783c058837c4a0d3
NUM_PEAKS=9
COMPOUND_NAME=Dichlorvos
SPECTRUM_ID=MSBNK-Athens_Univ-AU260002
ADDUCT=[M+H]+
MS_LEVEL=MS2
PRECURSOR_MZ=220.9532
IONMODE=positive
NOMINAL_MASS=220
PARENT_MASS=219.9459007
109.0053 112.0 
127.0145 653.0 
128.0177 17.0 
144.9803 433.0 
146.9779 106.0 
188.9277 25.0 
220.952 999.0 
221.9565 66.0 
222.9498 752.0 
END IONS

BEGIN IONS
SYNON=ethyl 2-diethoxyphosphinothioyloxy-5-methylpyrazolo[1,5-a]pyrimidine-6-carboxylate
INCHIKEY=JOOMJVFZQRQWKR-UHFFFAOYSA-N
INCHI=InChI=1S/C14H20N3O5PS/c1-5-19-14(18)11-9-17-12(15-10(11)4)8-13(16-17)22-23(24,20-6-2)21-7-3/h8-9H,5-7H2,1-4H3
SMILES=CCOC(=O)C1=CN2N=C(OP(=S)(OCC)OCC)C=C2N=C1C
INSTRUMENT_TYPE=LC-ESI-QTOF
INSTRUMENT=Bruker maXis Impact
COLLISION_ENERGY=Ramp 23.1-34.6 eV
FORMULA=C14H20N3O5PS
PARENT=374.0934
SPLASH=splash10-00di-0492000000-30aad7291705c6f57c22
NUM_PEAKS=49
COMPOUND_NAME=Pyrazophos
SPECTRUM_ID=MSBNK-Athens_Univ-AU260406
ADDUCT=[M+H]+
MS_LEVEL=MS2
PRECURSOR_MZ=374.0934
IONMODE=positive
NOMINAL_MASS=373
PARENT_MASS=373.0861284
64.9783 10.0 
93.0103 13.0 
98.985 14.0 
113.9543 20.0 
114.9625 35.0 
127.0156 6.0 
141.9843 11.0 
142.992 7.0 
148.0491 6.0 
155.0458 9.0 
166.06 7.0 
170.0152 17.0 
176.0448 86.0 
177.0519 36.0 
178.0579 5.0 
183.0215 21.0 
192.0215 13.0 
194.0556 518.0 
195.0585 42.0 
204.9368 8.0 
205.0843 61.0 
206.0899 12.0 
208.0164 13.0 
210.0328 70.0 
211.0354 7.0 
211.0532 52.0 
212.0553 5.0 
222.0872 999.0 
223.0903 140.0 
224.0925 13.0 
236.0488 45.0 
237.0512 6.0 
238.0644 241.0 
239.0672 28.0 
240.06 8.0 
250.1179 6.0 
266.0962 5.0 
271.9892 11.0 
289.9982 7.0 
300.0201 25.0 
318.0314 55.0 
319.0328 5.0 
328.0516 15.0 
346.0627 128.0 
347.0651 17.0 
348.0617 5.0 
374.0942 242.0 
375.0974 42.0 
376.0927 13.0 
END IONS

BEGIN IONS
SYNON=2-dimethoxyphosphinothioylsulfanyl-N-methylacetamide
INCHIKEY=MCWXGJITAZMZEV-UHFFFAOYSA-N
INCHI=InChI=1S/C5H12NO3PS2/c1-6-5(7)4-12-10(11,8-2)9-3/h4H2,1-3H3,(H,6,7)
SMILES=P(SCC(NC)=O)(OC)(OC)=S
INSTRUMENT_TYPE=LC-ESI-QTOF
INSTRUMENT=Bruker maXis Impact
COLLISION_ENERGY=50 eV
FORMULA=C5H12NO3PS2
PARENT=230.0069
SPLASH=splash10-00di-0900000000-95b4b9ee5ed4ac7965a8
NUM_PEAKS=6
COMPOUND_NAME=Dimethoate
SPECTRUM_ID=MSBNK-Athens_Univ-AU300911
ADDUCT=[M+H]+
MS_LEVEL=MS2
PRECURSOR_MZ=230.0069
IONMODE=positive
NOMINAL_MASS=229
PARENT_MASS=228.9996219
123.9997 70.0 
124.9824 999.0 
125.9879 34.0 
126.9782 55.0 
142.9932 495.0 
156.9538 37.0 
END IONS

BEGIN IONS
SYNON=[2-chloro-1-(2,4-dichlorophenyl)ethenyl] diethyl phosphate
INCHIKEY=FSAVDKDHPDSCTO-UHFFFAOYSA-N
INCHI=InChI=1S/C12H14Cl3O4P/c1-3-17-20(16,18-4-2)19-12(8-13)10-6-5-9(14)7-11(10)15/h5-8H,3-4H2,1-2H3
SMILES=CCOP(=O)(OCC)OC(=CCl)C1=C(Cl)C=C(Cl)C=C1
INSTRUMENT_TYPE=LC-ESI-QTOF
INSTRUMENT=Bruker maXis Impact
COLLISION_ENERGY=50 eV
FORMULA=C12H14Cl3O4P
PARENT=358.9768
SPLASH=splash10-014i-0900000000-71d56133a32d26d081f3
NUM_PEAKS=18
COMPOUND_NAME=Chlorfenvinphos
SPECTRUM_ID=MSBNK-Athens_Univ-AU260905
ADDUCT=[M+H]+
MS_LEVEL=MS2
PRECURSOR_MZ=358.9768
IONMODE=positive
NOMINAL_MASS=358
PARENT_MASS=357.9695286
122.9993 5.0 
127.0149 14.0 
132.9829 29.0 
133.9897 8.0 
134.9799 8.0 
150.9931 5.0 
163.0044 6.0 
168.9591 52.0 
169.9673 999.0 
170.957 27.0 
170.9705 84.0 
171.9644 414.0 
172.9677 27.0 
196.9646 21.0 
198.9634 10.0 
204.936 73.0 
205.9396 7.0 
206.9329 57.0 
END IONS

BEGIN IONS
SYNON=diethoxyphosphinothioylsulfanylmethylsulfanyl-diethoxy-sulfanylidene-lambda5-phosphane
INCHIKEY=RIZMRRKBZQXFOY-UHFFFAOYSA-N
INCHI=InChI=1S/C9H22O4P2S4/c1-5-10-14(16,11-6-2)18-9-19-15(17,12-7-3)13-8-4/h5-9H2,1-4H3
SMILES=CCOP(=S)(OCC)SCSP(=S)(OCC)OCC
INSTRUMENT_TYPE=LC-ESI-QTOF
INSTRUMENT=Bruker maXis Impact
COLLISION_ENERGY=20 eV
FORMULA=C9H22O4P2S4
PARENT=384.9949
SPLASH=splash10-00dm-0900000000-09ca6e128a04a7dab25e
NUM_PEAKS=28
COMPOUND_NAME=Ethion
SPECTRUM_ID=MSBNK-Athens_Univ-AU260702
ADDUCT=[M+H]+
MS_LEVEL=MS2
PRECURSOR_MZ=384.9949
IONMODE=positive
NOMINAL_MASS=384
PARENT_MASS=383.9876164
114.9606 12.0 
124.9811 54.0 
126.9428 12.0 
142.9375 878.0 
143.9381 13.0 
144.9333 51.0 
153.0124 311.0 
154.0155 14.0 
154.9735 22.0 
155.0081 12.0 
170.9688 999.0 
171.0231 134.0 
171.9709 36.0 
172.026 7.0 
172.9644 65.0 
173.0182 6.0 
174.9095 8.0 
184.9848 8.0 
187.0001 6.0 
199.0004 658.0 
200.0029 36.0 
200.9962 38.0 
202.9415 18.0 
215.0317 32.0 
230.9725 59.0 
231.9747 5.0 
232.9679 7.0 
292.965 6.0 
END IONS

BEGIN IONS
SYNON=2,2-dichloroethenyl dimethyl phosphate
INCHIKEY=OEBRKCOSUFCWJD-UHFFFAOYSA-N
INCHI=InChI=1S/C4H7Cl2O4P/c1-8-11(7,9-2)10-3-4(5)6/h3H,1-2H3
SMILES=COP(=O)(OC)OC=C(Cl)Cl
INSTRUMENT_TYPE=GC-APCI-QTOF
INSTRUMENT=Bruker 450 GC coupled to maXis Impact
COLLISION_ENERGY=20 eV
FORMULA=C4H7Cl2O4P
PARENT=220.9532
SPLASH=splash10-004i-0900000000-fcb40f24195436feb053
NUM_PEAKS=9
COMPOUND_NAME=Dichlorvos
SPECTRUM_ID=MSBNK-Athens_Univ-AU591102
ADDUCT=[M+H]+
MS_LEVEL=MS2
PRECURSOR_MZ=220.9532
IONMODE=positive
NOMINAL_MASS=220
PARENT_MASS=219.9459
75.9704 13.0 
78.9933 9.0 
93.0109 8.0 
109.0043 13.0 
113.0012 5.0 
127.0148 999.0 
144.9788 224.0 
184.9728 370.0 
220.9502 145.0 
END IONS

BEGIN IONS
SYNON=dimethoxy-(3-methyl-4-methylsulfanylphenoxy)-sulfanylidene-$l^{5}-phosphane
INCHIKEY=PNVJTZOFSHSLTO-UHFFFAOYSA-N
INCHI=InChI=1S/C10H15O3PS2/c1-8-7-9(5-6-10(8)16-4)13-14(15,11-2)12-3/h5-7H,1-4H3
SMILES=COP(=S)(OC)OC1=CC(C)=C(SC)C=C1
INSTRUMENT_TYPE=LC-ESI-QTOF
INSTRUMENT=Bruker maXis Impact
COLLISION_ENERGY=20 eV
FORMULA=C10H15O3PS2
PARENT=279.0273
SPLASH=splash10-014j-0940000000-4c4cfaec8b9d90f02220
NUM_PEAKS=37
COMPOUND_NAME=Fenthion
SPECTRUM_ID=MSBNK-Athens_Univ-AU315502
ADDUCT=[M+H]+
MS_LEVEL=MS2
PRECURSOR_MZ=279.0273
IONMODE=positive
NOMINAL_MASS=278
PARENT_MASS=278.0200230
121.0097 6.0 
122.0194 5.0 
123.0254 15.0 
124.981 188.0 
126.9776 5.0 
127.0136 7.0 
137.0408 62.0 
138.0488 232.0 
139.0514 21.0 
140.0445 7.0 
142.9919 64.0 
149.0223 62.0 
150.0266 7.0 
153.0358 167.0 
153.9894 20.0 
154.0397 18.0 
155.0323 7.0 
168.9864 62.0 
169.0132 999.0 
170.0165 96.0 
171.0088 66.0 
185.0448 49.0 
200.0049 42.0 
201.0117 7.0 
214.974 46.0 
215.9749 5.0 
231.0222 6.0 
231.9764 56.0 
232.0306 20.0 
232.9802 7.0 
233.9745 5.0 
247.0005 621.0 
248.004 64.0 
248.9971 37.0 
264.0007 8.0 
265.0109 19.0 
279.0266 180.0 
END IONS

BEGIN IONS
SYNON=dimethyl [(E)-4-(methylamino)-4-oxobut-2-en-2-yl] phosphate
INCHIKEY=KRTSDMXIXPKRQR-AATRIKPKSA-N
INCHI=InChI=1S/C7H14NO5P/c1-6(5-7(9)8-2)13-14(10,11-3)12-4/h5H,1-4H3,(H,8,9)/b6-5+
SMILES=C/C(=C\C(=N\C)\O)/OP(=O)(OC)OC
INSTRUMENT_TYPE=LC-ESI-QTOF
INSTRUMENT=Bruker maXis Impact
COLLISION_ENERGY=40 eV
FORMULA=C7H14NO5P
PARENT=224.0682
SPLASH=splash10-004i-0900000000-c0b68f0a70caf30dde61
NUM_PEAKS=4
COMPOUND_NAME=Monocrotophos
SPECTRUM_ID=MSBNK-Athens_Univ-AU313304
ADDUCT=[M+H]+
MS_LEVEL=MS2
PRECURSOR_MZ=224.0682
IONMODE=positive
NOMINAL_MASS=223
PARENT_MASS=223.0609592
109.005 29.0 
127.0156 999.0 
128.0192 35.0 
129.0196 10.0 
END IONS

BEGIN IONS
SYNON=diethoxyphosphinothioylsulfanylmethylsulfanyl-diethoxy-sulfanylidene-lambda5-phosphane
INCHIKEY=RIZMRRKBZQXFOY-UHFFFAOYSA-N
INCHI=InChI=1S/C9H22O4P2S4/c1-5-10-14(16,11-6-2)18-9-19-15(17,12-7-3)13-8-4/h5-9H2,1-4H3
SMILES=CCOP(=S)(OCC)SCSP(=S)(OCC)OCC
INSTRUMENT_TYPE=LC-ESI-QTOF
INSTRUMENT=Bruker maXis Impact
COLLISION_ENERGY=30 eV
FORMULA=C9H22O4P2S4
PARENT=384.9949
SPLASH=splash10-0006-0900000000-ddd8c49fa49fd26a97a0
NUM_PEAKS=18
COMPOUND_NAME=Ethion
SPECTRUM_ID=MSBNK-Athens_Univ-AU260703
ADDUCT=[M+H]+
MS_LEVEL=MS2
PRECURSOR_MZ=384.9949
IONMODE=positive
NOMINAL_MASS=384
PARENT_MASS=383.9876164
114.9606 15.0 
124.9811 62.0 
126.9426 13.0 
142.9373 999.0 
143.9383 19.0 
144.9328 52.0 
153.012 87.0 
156.9527 5.0 
170.9685 249.0 
171.0225 46.0 
171.9707 10.0 
172.964 16.0 
174.9093 16.0 
184.9838 11.0 
198.9998 77.0 
200.9957 7.0 
202.9404 12.0 
230.9724 11.0 
END IONS

BEGIN IONS
SYNON=2-dimethoxyphosphinothioylsulfanyl-N-methylacetamide
INCHIKEY=MCWXGJITAZMZEV-UHFFFAOYSA-N
INCHI=InChI=1S/C5H12NO3PS2/c1-6-5(7)4-12-10(11,8-2)9-3/h4H2,1-3H3,(H,6,7)
SMILES=P(SCC(NC)=O)(OC)(OC)=S
INSTRUMENT_TYPE=LC-ESI-QTOF
INSTRUMENT=Bruker maXis Impact
COLLISION_ENERGY=10 eV
FORMULA=C5H12NO3PS2
PARENT=230.0069
SPLASH=splash10-0002-0910000000-d429d13f2e017edc0f21
NUM_PEAKS=13
COMPOUND_NAME=Dimethoate
SPECTRUM_ID=MSBNK-Athens_Univ-AU300901
ADDUCT=[M+H]+
MS_LEVEL=MS2
PRECURSOR_MZ=230.0069
IONMODE=positive
NOMINAL_MASS=229
PARENT_MASS=228.9996219
124.9822 56.0 
142.9928 34.0 
156.9543 5.0 
170.9703 147.0 
171.9721 5.0 
172.9661 10.0 
197.9814 34.0 
198.9657 999.0 
199.9682 36.0 
200.9614 57.0 
230.0081 150.0 
231.0105 8.0 
232.0037 10.0 
END IONS

BEGIN IONS
SYNON=[2-chloro-1-(2,4-dichlorophenyl)ethenyl] diethyl phosphate
INCHIKEY=FSAVDKDHPDSCTO-UHFFFAOYSA-N
INCHI=InChI=1S/C12H14Cl3O4P/c1-3-17-20(16,18-4-2)19-12(8-13)10-6-5-9(14)7-11(10)15/h5-8H,3-4H2,1-2H3
SMILES=CCOP(=O)(OCC)OC(=CCl)C1=C(Cl)C=C(Cl)C=C1
INSTRUMENT_TYPE=LC-ESI-QTOF
INSTRUMENT=Bruker maXis Impact
COLLISION_ENERGY=20 eV
FORMULA=C12H14Cl3O4P
PARENT=358.9768
SPLASH=splash10-0a4i-0950000000-9db444f104f10840cd86
NUM_PEAKS=15
COMPOUND_NAME=Chlorfenvinphos
SPECTRUM_ID=MSBNK-Athens_Univ-AU260902
ADDUCT=[M+H]+
MS_LEVEL=MS2
PRECURSOR_MZ=358.9768
IONMODE=positive
NOMINAL_MASS=358
PARENT_MASS=357.9695286
127.0146 571.0 
128.0181 9.0 
155.0457 999.0 
156.0491 38.0 
169.9676 52.0 
171.9644 21.0 
204.9367 488.0 
205.9398 47.0 
206.9333 442.0 
207.937 24.0 
208.9291 5.0 
330.9445 9.0 
332.942 6.0 
358.9767 8.0 
360.9729 8.0 
END IONS

BEGIN IONS
SYNON=2-dimethoxyphosphinothioylsulfanyl-N-methylacetamide
INCHIKEY=MCWXGJITAZMZEV-UHFFFAOYSA-N
INCHI=InChI=1S/C5H12NO3PS2/c1-6-5(7)4-12-10(11,8-2)9-3/h4H2,1-3H3,(H,6,7)
SMILES=P(SCC(NC)=O)(OC)(OC)=S
INSTRUMENT_TYPE=LC-ESI-QTOF
INSTRUMENT=Bruker maXis Impact
COLLISION_ENERGY=20 eV
FORMULA=C5H12NO3PS2
PARENT=230.0069
SPLASH=splash10-00di-0900000000-5a08f758c1691434a75c
NUM_PEAKS=20
COMPOUND_NAME=Dimethoate
SPECTRUM_ID=MSBNK-Athens_Univ-AU300907
ADDUCT=[M+H]+
MS_LEVEL=MS2
PRECURSOR_MZ=230.0069
IONMODE=positive
NOMINAL_MASS=229
PARENT_MASS=228.9996219
119.9943 12.0 
123.9988 24.0 
124.9826 999.0 
125.985 24.0 
126.9782 40.0 
140.9598 7.0 
142.9933 379.0 
144.989 17.0 
155.9708 28.0 
156.9546 168.0 
157.9589 6.0 
158.951 15.0 
170.9705 642.0 
171.9729 28.0 
172.966 57.0 
188.9812 5.0 
197.9818 34.0 
198.9655 237.0 
199.9686 12.0 
200.9608 19.0 
END IONS

BEGIN IONS
SYNON=N-[methoxy(methylsulfanyl)phosphoryl]acetamide
INCHIKEY=YASYVMFAVPKPKE-UHFFFAOYSA-N
INCHI=InChI=1S/C4H10NO3PS/c1-4(6)5-9(7,8-2)10-3/h1-3H3,(H,5,6,7)
SMILES=CC(=O)NP(=O)(OC)SC
INSTRUMENT_TYPE=LC-ESI-QTOF
INSTRUMENT=Bruker maXis Impact
COLLISION_ENERGY=20 eV
FORMULA=C4H10NO3PS
PARENT=184.0192
SPLASH=splash10-0006-0900000000-f709abfbf2ce1ec086ec
NUM_PEAKS=8
COMPOUND_NAME=Acephate
SPECTRUM_ID=MSBNK-Athens_Univ-AU311108
ADDUCT=[M+H]+
MS_LEVEL=MS2
PRECURSOR_MZ=184.0192
IONMODE=positive
NOMINAL_MASS=183
PARENT_MASS=183.0119008
110.9675 5.0 
124.9827 161.0 
126.9784 9.0 
136.0164 6.0 
142.0087 45.0 
142.9934 999.0 
143.996 24.0 
144.9896 34.0 
END IONS

BEGIN IONS
SYNON=2,2-dichloroethenyl dimethyl phosphate
INCHIKEY=OEBRKCOSUFCWJD-UHFFFAOYSA-N
INCHI=InChI=1S/C4H7Cl2O4P/c1-8-11(7,9-2)10-3-4(5)6/h3H,1-2H3
SMILES=COP(=O)(OC)OC=C(Cl)Cl
INSTRUMENT_TYPE=GC-APCI-QTOF
INSTRUMENT=Bruker 450 GC coupled to maXis Impact
COLLISION_ENERGY=40 eV
FORMULA=C4H7Cl2O4P
PARENT=220.9532
SPLASH=splash10-004i-0900000000-79d8803515b097752000
NUM_PEAKS=7
COMPOUND_NAME=Dichlorvos
SPECTRUM_ID=MSBNK-Athens_Univ-AU591104
ADDUCT=[M+H]+
MS_LEVEL=MS2
PRECURSOR_MZ=220.9532
IONMODE=positive
NOMINAL_MASS=220
PARENT_MASS=219.9459
46.968 29.0 
62.9984 25.0 
78.9942 43.0 
93.0097 11.0 
112.9995 35.0 
127.015 999.0 
144.9801 19.0 
END IONS

BEGIN IONS
SYNON=2,2-dichloroethenyl dimethyl phosphate
INCHIKEY=OEBRKCOSUFCWJD-UHFFFAOYSA-N
INCHI=InChI=1S/C4H7Cl2O4P/c1-8-11(7,9-2)10-3-4(5)6/h3H,1-2H3
SMILES=COP(=O)(OC)OC=C(Cl)Cl
INSTRUMENT_TYPE=LC-ESI-QTOF
INSTRUMENT=Bruker maXis Impact
COLLISION_ENERGY=Ramp 18.8-28.1 eV
FORMULA=C4H7Cl2O4P
PARENT=220.9532
SPLASH=splash10-004i-4930000000-222f71b57466b8e7212a
NUM_PEAKS=17
COMPOUND_NAME=Dichlorvos
SPECTRUM_ID=MSBNK-Athens_Univ-AU260006
ADDUCT=[M+H]+
MS_LEVEL=MS2
PRECURSOR_MZ=220.9532
IONMODE=positive
NOMINAL_MASS=220
PARENT_MASS=219.9459007
46.9678 6.0 
48.9835 9.0 
53.0386 19.0 
59.0487 481.0 
76.9787 9.0 
78.9944 87.0 
96.9606 19.0 
97.0058 6.0 
113.0006 19.0 
127.0145 999.0 
128.0174 30.0 
130.9651 7.0 
144.9805 82.0 
146.9772 17.0 
220.952 238.0 
221.9549 13.0 
222.9495 159.0 
END IONS

BEGIN IONS
SYNON=dimethoxy-(4-nitrophenoxy)-sulfanylidene-lambda5-phosphane
INCHIKEY=RLBIQVVOMOPOHC-UHFFFAOYSA-N
INCHI=InChI=1S/C8H10NO5PS/c1-12-15(16,13-2)14-8-5-3-7(4-6-8)9(10)11/h3-6H,1-2H3
SMILES=COP(=S)(OC)OC1=CC=C(C=C1)[N+]([O-])=O
INSTRUMENT_TYPE=LC-ESI-QTOF
INSTRUMENT=Bruker maXis Impact
COLLISION_ENERGY=30 eV
FORMULA=C8H10NO5PS
PARENT=264.009
SPLASH=splash10-0fkj-0930000000-9240fd88bcf3636c58b1
NUM_PEAKS=10
COMPOUND_NAME=Parathion-methyl
SPECTRUM_ID=MSBNK-Athens_Univ-AU261603
ADDUCT=[M+H]+
MS_LEVEL=MS2
PRECURSOR_MZ=264.009
IONMODE=positive
NOMINAL_MASS=263
PARENT_MASS=263.0017300
124.9815 999.0 
142.9917 490.0 
153.961 270.0 
154.9702 423.0 
185.9541 301.0 
185.9884 314.0 
199.956 195.0 
214.9777 173.0 
231.9829 141.0 
249.9928 704.0 
END IONS

BEGIN IONS
SYNON=ethyl 2-diethoxyphosphinothioyloxy-5-methylpyrazolo[1,5-a]pyrimidine-6-carboxylate
INCHIKEY=JOOMJVFZQRQWKR-UHFFFAOYSA-N
INCHI=InChI=1S/C14H20N3O5PS/c1-5-19-14(18)11-9-17-12(15-10(11)4)8-13(16-17)22-23(24,20-6-2)21-7-3/h8-9H,5-7H2,1-4H3
SMILES=CCOC(=O)C1=CN2N=C(OP(=S)(OCC)OCC)C=C2N=C1C
INSTRUMENT_TYPE=LC-ESI-QTOF
INSTRUMENT=Bruker maXis Impact
COLLISION_ENERGY=20 eV
FORMULA=C14H20N3O5PS
PARENT=374.0934
SPLASH=splash10-00di-0089000000-f21ab90f5ab0851a6860
NUM_PEAKS=27
COMPOUND_NAME=Pyrazophos
SPECTRUM_ID=MSBNK-Athens_Univ-AU260402
ADDUCT=[M+H]+
MS_LEVEL=MS2
PRECURSOR_MZ=374.0934
IONMODE=positive
NOMINAL_MASS=373
PARENT_MASS=373.0861284
155.0457 15.0 
170.0152 15.0 
176.0444 5.0 
194.0553 39.0 
205.0837 20.0 
206.0891 5.0 
210.0327 13.0 
211.0529 16.0 
222.087 999.0 
223.0901 85.0 
224.092 6.0 
236.0484 25.0 
238.0642 169.0 
239.0668 19.0 
240.0611 7.0 
250.1175 5.0 
266.0942 8.0 
300.0196 16.0 
318.031 60.0 
319.0342 7.0 
328.0512 14.0 
346.0624 233.0 
347.0652 29.0 
348.0614 10.0 
374.0941 922.0 
375.0966 124.0 
376.0917 34.0 
END IONS

BEGIN IONS
SYNON=(3,5-dimethyl-4-methylsulfanylphenyl) N-methylcarbamate
INCHIKEY=YFBPRJGDJKVWAH-UHFFFAOYSA-N
INCHI=InChI=1S/C11H15NO2S/c1-7-5-9(14-11(13)12-3)6-8(2)10(7)15-4/h5-6H,1-4H3,(H,12,13)
SMILES=CNC(=O)OC1=CC(C)=C(SC)C(C)=C1
INSTRUMENT_TYPE=LC-ESI-QTOF
INSTRUMENT=Bruker maXis Impact
COLLISION_ENERGY=40 eV
FORMULA=C11H15NO2S
PARENT=226.0896
SPLASH=splash10-00di-0900000000-cd9ea5b0bb9ebbc3ca61
NUM_PEAKS=15
COMPOUND_NAME=Methiocarb
SPECTRUM_ID=MSBNK-Athens_Univ-AU258004
ADDUCT=[M+H]+
MS_LEVEL=MS2
PRECURSOR_MZ=226.0896
IONMODE=positive
NOMINAL_MASS=225
PARENT_MASS=225.0823497
107.0497 16.0 
120.0556 16.0 
121.0641 999.0 
122.0715 887.0 
123.0756 95.0 
125.0401 17.0 
126.0486 13.0 
135.0245 22.0 
136.0324 7.0 
139.0201 35.0 
153.0365 42.0 
154.0429 192.0 
155.0466 21.0 
156.038 8.0 
169.0668 16.0 
END IONS

BEGIN IONS
SYNON=naphthalen-1-yl N-methylcarbamate
INCHIKEY=CVXBEEMKQHEXEN-UHFFFAOYSA-N
INCHI=InChI=1S/C12H11NO2/c1-13-12(14)15-11-8-4-6-9-5-2-3-7-10(9)11/h2-8H,1H3,(H,13,14)
SMILES=CNC(=O)OC1=C2C=CC=CC2=CC=C1
INSTRUMENT_TYPE=LC-ESI-QTOF
INSTRUMENT=Bruker maXis Impact
COLLISION_ENERGY=10 eV
FORMULA=C12H11NO2
PARENT=202.0863
SPLASH=splash10-0002-0900000000-7bb5817f11dcafd54b17
NUM_PEAKS=4
COMPOUND_NAME=Carbaryl
SPECTRUM_ID=MSBNK-Athens_Univ-AU262401
ADDUCT=[M+H]+
MS_LEVEL=MS2
PRECURSOR_MZ=202.0863
IONMODE=positive
NOMINAL_MASS=201
PARENT_MASS=201.0789786
117.0688 6.0 
145.0639 999.0 
146.0672 88.0 
202.0846 33.0 
END IONS

BEGIN IONS
SYNON=[2-(dimethylamino)-5,6-dimethylpyrimidin-4-yl] N,N-dimethylcarbamate
INCHIKEY=YFGYUFNIOHWBOB-UHFFFAOYSA-N
INCHI=InChI=1S/C11H18N4O2/c1-7-8(2)12-10(14(3)4)13-9(7)17-11(16)15(5)6/h1-6H3
SMILES=CN(C)C(=O)OC1=C(C)C(C)=NC(=N1)N(C)C
INSTRUMENT_TYPE=LC-ESI-QTOF
INSTRUMENT=Bruker maXis Impact
COLLISION_ENERGY=20 eV
FORMULA=C11H18N4O2
PARENT=239.1503
SPLASH=splash10-001i-0910000000-69f38e283d7a0c53ec29
NUM_PEAKS=9
COMPOUND_NAME=Pirimicarb
SPECTRUM_ID=MSBNK-Athens_Univ-AU257702
ADDUCT=[M+H]+
MS_LEVEL=MS2
PRECURSOR_MZ=239.1503
IONMODE=positive
NOMINAL_MASS=238
PARENT_MASS=238.1429758
137.0696 20.0 
150.1008 12.0 
166.0958 7.0 
167.1033 9.0 
182.1276 999.0 
183.1306 75.0 
195.1591 29.0 
239.1493 182.0 
240.1521 21.0 
END IONS

BEGIN IONS
SYNON=ethyl 2-diethoxyphosphinothioyloxy-5-methylpyrazolo[1,5-a]pyrimidine-6-carboxylate
INCHIKEY=JOOMJVFZQRQWKR-UHFFFAOYSA-N
INCHI=InChI=1S/C14H20N3O5PS/c1-5-19-14(18)11-9-17-12(15-10(11)4)8-13(16-17)22-23(24,20-6-2)21-7-3/h8-9H,5-7H2,1-4H3
SMILES=CCOC(=O)C1=CN2N=C(OP(=S)(OCC)OCC)C=C2N=C1C
INSTRUMENT_TYPE=LC-ESI-QTOF
INSTRUMENT=Bruker maXis Impact
COLLISION_ENERGY=30 eV
FORMULA=C14H20N3O5PS
PARENT=374.0934
SPLASH=splash10-00di-0390000000-74baccbc07729f32643e
NUM_PEAKS=28
COMPOUND_NAME=Pyrazophos
SPECTRUM_ID=MSBNK-Athens_Univ-AU260403
ADDUCT=[M+H]+
MS_LEVEL=MS2
PRECURSOR_MZ=374.0934
IONMODE=positive
NOMINAL_MASS=373
PARENT_MASS=373.0861284
141.9831 9.0 
142.9913 6.0 
170.0148 11.0 
176.044 42.0 
177.0515 21.0 
183.0209 13.0 
192.0216 8.0 
194.0551 354.0 
195.0579 25.0 
204.9367 5.0 
205.0834 34.0 
206.0892 8.0 
208.0164 8.0 
210.0322 48.0 
211.0528 32.0 
222.0867 999.0 
223.0896 75.0 
224.0914 6.0 
236.0481 30.0 
238.064 148.0 
239.0664 15.0 
240.0603 5.0 
271.9884 6.0 
300.0196 19.0 
318.0304 20.0 
328.0515 6.0 
346.0614 25.0 
374.093 21.0 
END IONS

BEGIN IONS
SYNON=dimethyl [(E)-4-(methylamino)-4-oxobut-2-en-2-yl] phosphate
INCHIKEY=KRTSDMXIXPKRQR-AATRIKPKSA-N
INCHI=InChI=1S/C7H14NO5P/c1-6(5-7(9)8-2)13-14(10,11-3)12-4/h5H,1-4H3,(H,8,9)/b6-5+
SMILES=C/C(=C\C(=N\C)\O)/OP(=O)(OC)OC
INSTRUMENT_TYPE=LC-ESI-QTOF
INSTRUMENT=Bruker maXis Impact
COLLISION_ENERGY=10 eV
FORMULA=C7H14NO5P
PARENT=224.0682
SPLASH=splash10-0006-0900000000-493d99f8bc71886cb8e5
NUM_PEAKS=7
COMPOUND_NAME=Monocrotophos
SPECTRUM_ID=MSBNK-Athens_Univ-AU313307
ADDUCT=[M+H]+
MS_LEVEL=MS2
PRECURSOR_MZ=224.0682
IONMODE=positive
NOMINAL_MASS=223
PARENT_MASS=223.0609592
127.0161 444.0 
128.0194 10.0 
167.0475 112.0 
193.0272 999.0 
194.0304 38.0 
195.0313 6.0 
224.0696 44.0 
END IONS

BEGIN IONS
SYNON=diethoxy-(6-methyl-2-propan-2-ylpyrimidin-4-yl)oxy-sulfanylidene-$l^{5}-phosphane
INCHIKEY=FHIVAFMUCKRCQO-UHFFFAOYSA-N
INCHI=InChI=1S/C12H21N2O3PS/c1-6-15-18(19,16-7-2)17-11-8-10(5)13-12(14-11)9(3)4/h8-9H,6-7H2,1-5H3
SMILES=CCOP(=S)(OCC)OC1=NC(=NC(C)=C1)C(C)C
INSTRUMENT_TYPE=LC-ESI-QTOF
INSTRUMENT=Bruker maXis Impact
COLLISION_ENERGY=50 eV
FORMULA=C12H21N2O3PS
PARENT=305.1083
SPLASH=splash10-0gb9-0900000000-49a403503b8e1237dddc
NUM_PEAKS=11
COMPOUND_NAME=Diazinon
SPECTRUM_ID=MSBNK-Athens_Univ-AU312405
ADDUCT=[M+H]+
MS_LEVEL=MS2
PRECURSOR_MZ=305.1083
IONMODE=positive
NOMINAL_MASS=304
PARENT_MASS=304.1010502
128.052 7.0 
135.0908 69.0 
136.0748 5.0 
136.0947 7.0 
153.1014 552.0 
154.0545 65.0 
154.1046 41.0 
155.0576 6.0 
167.0626 9.0 
168.0705 7.0 
169.0787 999.0 
END IONS

BEGIN IONS
SYNON=[2-chloro-1-(2,4-dichlorophenyl)ethenyl] diethyl phosphate
INCHIKEY=FSAVDKDHPDSCTO-UHFFFAOYSA-N
INCHI=InChI=1S/C12H14Cl3O4P/c1-3-17-20(16,18-4-2)19-12(8-13)10-6-5-9(14)7-11(10)15/h5-8H,3-4H2,1-2H3
SMILES=CCOP(=O)(OCC)OC(=CCl)C1=C(Cl)C=C(Cl)C=C1
INSTRUMENT_TYPE=LC-ESI-QTOF
INSTRUMENT=Bruker maXis Impact
COLLISION_ENERGY=30 eV
FORMULA=C12H14Cl3O4P
PARENT=358.9768
SPLASH=splash10-0pvi-0790000000-0adb94cd92aa4bec59ae
NUM_PEAKS=15
COMPOUND_NAME=Chlorfenvinphos
SPECTRUM_ID=MSBNK-Athens_Univ-AU260903
ADDUCT=[M+H]+
MS_LEVEL=MS2
PRECURSOR_MZ=358.9768
IONMODE=positive
NOMINAL_MASS=358
PARENT_MASS=357.9695286
127.0145 426.0 
128.0182 6.0 
155.0454 205.0 
156.0493 6.0 
168.9595 11.0 
169.9672 682.0 
170.9704 54.0 
171.9642 286.0 
172.9681 18.0 
196.9652 7.0 
204.9367 999.0 
205.9398 102.0 
206.9334 950.0 
207.9367 49.0 
208.9298 10.0 
END IONS

BEGIN IONS
SYNON=naphthalen-1-yl N-methylcarbamate
INCHIKEY=CVXBEEMKQHEXEN-UHFFFAOYSA-N
INCHI=InChI=1S/C12H11NO2/c1-13-12(14)15-11-8-4-6-9-5-2-3-7-10(9)11/h2-8H,1H3,(H,13,14)
SMILES=CNC(=O)OC1=C2C=CC=CC2=CC=C1
INSTRUMENT_TYPE=LC-ESI-QTOF
INSTRUMENT=Bruker maXis Impact
COLLISION_ENERGY=50 eV
FORMULA=C12H11NO2
PARENT=202.0863
SPLASH=splash10-00or-0900000000-ee495c6642d3995b533c
NUM_PEAKS=13
COMPOUND_NAME=Carbaryl
SPECTRUM_ID=MSBNK-Athens_Univ-AU262405
ADDUCT=[M+H]+
MS_LEVEL=MS2
PRECURSOR_MZ=202.0863
IONMODE=positive
NOMINAL_MASS=201
PARENT_MASS=201.0789786
115.0536 731.0 
117.0692 125.0 
118.0734 17.0 
125.0381 33.0 
126.0454 501.0 
127.0532 999.0 
128.0577 141.0 
131.0466 8.0 
143.049 6.0 
144.0556 126.0 
145.0637 693.0 
146.0666 72.0 
157.0671 12.0 
END IONS

BEGIN IONS
SYNON=2-dimethoxyphosphinothioylsulfanyl-N-methylacetamide
INCHIKEY=MCWXGJITAZMZEV-UHFFFAOYSA-N
INCHI=InChI=1S/C5H12NO3PS2/c1-6-5(7)4-12-10(11,8-2)9-3/h4H2,1-3H3,(H,6,7)
SMILES=P(SCC(NC)=O)(OC)(OC)=S
INSTRUMENT_TYPE=LC-ESI-QTOF
INSTRUMENT=Bruker maXis Impact
COLLISION_ENERGY=40 eV
FORMULA=C5H12NO3PS2
PARENT=230.0069
SPLASH=splash10-00di-0900000000-b9973801d9ec4723183d
NUM_PEAKS=12
COMPOUND_NAME=Dimethoate
SPECTRUM_ID=MSBNK-Athens_Univ-AU300910
ADDUCT=[M+H]+
MS_LEVEL=MS2
PRECURSOR_MZ=230.0069
IONMODE=positive
NOMINAL_MASS=229
PARENT_MASS=228.9996219
110.9662 5.0 
123.9985 48.0 
124.9826 999.0 
125.9846 32.0 
126.9445 5.0 
126.9779 48.0 
140.9622 6.0 
142.9928 405.0 
144.9895 26.0 
155.9718 8.0 
156.9541 65.0 
158.9502 6.0 
END IONS

BEGIN IONS
SYNON=(3,5-dimethyl-4-methylsulfanylphenyl) N-methylcarbamate
INCHIKEY=YFBPRJGDJKVWAH-UHFFFAOYSA-N
INCHI=InChI=1S/C11H15NO2S/c1-7-5-9(14-11(13)12-3)6-8(2)10(7)15-4/h5-6H,1-4H3,(H,12,13)
SMILES=CNC(=O)OC1=CC(C)=C(SC)C(C)=C1
INSTRUMENT_TYPE=LC-ESI-QTOF
INSTRUMENT=Bruker maXis Impact
COLLISION_ENERGY=50 eV
FORMULA=C11H15NO2S
PARENT=226.0896
SPLASH=splash10-00di-0900000000-9d19068f46e18731f4d0
NUM_PEAKS=17
COMPOUND_NAME=Methiocarb
SPECTRUM_ID=MSBNK-Athens_Univ-AU258005
ADDUCT=[M+H]+
MS_LEVEL=MS2
PRECURSOR_MZ=226.0896
IONMODE=positive
NOMINAL_MASS=225
PARENT_MASS=225.0823497
107.051 29.0 
108.0565 12.0 
111.0258 12.0 
121.0636 999.0 
122.0708 429.0 
123.0761 57.0 
125.0413 44.0 
126.0484 18.0 
135.0253 75.0 
137.0039 12.0 
139.0201 61.0 
153.0353 23.0 
154.0425 92.0 
155.0465 13.0 
169.0347 15.0 
170.0329 13.0 
198.9727 16.0 
END IONS

BEGIN IONS
SYNON=diethoxyphosphinothioylsulfanylmethylsulfanyl-diethoxy-sulfanylidene-lambda5-phosphane
INCHIKEY=RIZMRRKBZQXFOY-UHFFFAOYSA-N
INCHI=InChI=1S/C9H22O4P2S4/c1-5-10-14(16,11-6-2)18-9-19-15(17,12-7-3)13-8-4/h5-9H2,1-4H3
SMILES=CCOP(=S)(OCC)SCSP(=S)(OCC)OCC
INSTRUMENT_TYPE=LC-ESI-QTOF
INSTRUMENT=Bruker maXis Impact
COLLISION_ENERGY=50 eV
FORMULA=C9H22O4P2S4
PARENT=384.9949
SPLASH=splash10-0006-0900000000-0b6b8e6bed1d38ed180d
NUM_PEAKS=15
COMPOUND_NAME=Ethion
SPECTRUM_ID=MSBNK-Athens_Univ-AU260705
ADDUCT=[M+H]+
MS_LEVEL=MS2
PRECURSOR_MZ=384.9949
IONMODE=positive
NOMINAL_MASS=384
PARENT_MASS=383.9876164
114.9613 12.0 
124.9271 5.0 
124.9812 38.0 
126.9425 26.0 
128.9221 49.0 
130.9183 5.0 
142.9376 999.0 
143.9383 23.0 
144.9335 66.0 
153.0124 19.0 
156.9528 12.0 
160.9475 6.0 
170.9685 31.0 
171.0229 16.0 
174.9097 21.0 
END IONS

BEGIN IONS
SYNON=dimethoxy-(4-nitrophenoxy)-sulfanylidene-lambda5-phosphane
INCHIKEY=RLBIQVVOMOPOHC-UHFFFAOYSA-N
INCHI=InChI=1S/C8H10NO5PS/c1-12-15(16,13-2)14-8-5-3-7(4-6-8)9(10)11/h3-6H,1-2H3
SMILES=COP(=S)(OC)OC1=CC=C(C=C1)[N+]([O-])=O
INSTRUMENT_TYPE=LC-ESI-QTOF
INSTRUMENT=Bruker maXis Impact
COLLISION_ENERGY=Ramp 20.3-30.5 eV
FORMULA=C8H10NO5PS
PARENT=264.009
SPLASH=splash10-0007-0960000000-941ebae380eaa451e25d
NUM_PEAKS=19
COMPOUND_NAME=Parathion-methyl
SPECTRUM_ID=MSBNK-Athens_Univ-AU261606
ADDUCT=[M+H]+
MS_LEVEL=MS2
PRECURSOR_MZ=264.009
IONMODE=positive
NOMINAL_MASS=263
PARENT_MASS=263.0017300
123.0312 102.0 
124.9814 250.0 
127.0151 161.0 
142.9924 999.0 
143.9936 41.0 
150.0294 100.0 
153.9648 43.0 
153.9943 64.0 
154.9716 104.0 
185.9531 42.0 
185.9891 195.0 
199.956 82.0 
214.9786 85.0 
231.983 65.0 
235.9776 70.0 
249.9932 996.0 
251.0001 50.0 
251.9955 51.0 
264.0095 240.0 
END IONS

BEGIN IONS
SYNON=dimethoxy-(3-methyl-4-methylsulfanylphenoxy)-sulfanylidene-$l^{5}-phosphane
INCHIKEY=PNVJTZOFSHSLTO-UHFFFAOYSA-N
INCHI=InChI=1S/C10H15O3PS2/c1-8-7-9(5-6-10(8)16-4)13-14(15,11-2)12-3/h5-7H,1-4H3
SMILES=COP(=S)(OC)OC1=CC(C)=C(SC)C=C1
INSTRUMENT_TYPE=LC-ESI-QTOF
INSTRUMENT=Bruker maXis Impact
COLLISION_ENERGY=40 eV
FORMULA=C10H15O3PS2
PARENT=279.0273
SPLASH=splash10-0gi0-0900000000-fc2e0d1f56a644607b35
NUM_PEAKS=44
COMPOUND_NAME=Fenthion
SPECTRUM_ID=MSBNK-Athens_Univ-AU315504
ADDUCT=[M+H]+
MS_LEVEL=MS2
PRECURSOR_MZ=279.0273
IONMODE=positive
NOMINAL_MASS=278
PARENT_MASS=278.0200230
121.0099 453.0 
121.0276 53.0 
122.0176 251.0 
123.0256 302.0 
124.03 26.0 
124.9813 528.0 
125.0415 322.0 
125.9839 22.0 
126.0454 35.0 
126.9766 19.0 
127.0362 19.0 
135.0253 108.0 
136.0328 72.0 
137.0406 77.0 
138.0127 27.0 
138.0491 245.0 
139.0526 33.0 
142.9916 262.0 
149.0224 235.0 
150.0258 19.0 
152.9818 260.0 
153.0362 904.0 
153.9896 475.0 
154.0404 117.0 
154.976 21.0 
154.9968 72.0 
155.0317 49.0 
155.985 29.0 
166.9981 31.0 
168.0039 28.0 
168.9862 999.0 
169.0131 662.0 
169.9903 97.0 
170.0183 138.0 
170.9835 33.0 
171.01 62.0 
172.0171 22.0 
185.9895 53.0 
199.9503 91.0 
200.0055 81.0 
200.9563 23.0 
202.9927 40.0 
214.975 132.0 
231.9774 80.0 
END IONS

BEGIN IONS
SYNON=dimethyl [(E)-4-(methylamino)-4-oxobut-2-en-2-yl] phosphate
INCHIKEY=KRTSDMXIXPKRQR-AATRIKPKSA-N
INCHI=InChI=1S/C7H14NO5P/c1-6(5-7(9)8-2)13-14(10,11-3)12-4/h5H,1-4H3,(H,8,9)/b6-5+
SMILES=C/C(=C\C(=N\C)\O)/OP(=O)(OC)OC
INSTRUMENT_TYPE=LC-ESI-QTOF
INSTRUMENT=Bruker maXis Impact
COLLISION_ENERGY=10 eV
FORMULA=C7H14NO5P
PARENT=224.0682
SPLASH=splash10-002f-0900000000-bc93c9f49b96b126240c
NUM_PEAKS=8
COMPOUND_NAME=Monocrotophos
SPECTRUM_ID=MSBNK-Athens_Univ-AU313301
ADDUCT=[M+H]+
MS_LEVEL=MS2
PRECURSOR_MZ=224.0682
IONMODE=positive
NOMINAL_MASS=223
PARENT_MASS=223.0609592
127.016 519.0 
128.0192 12.0 
167.0472 134.0 
168.0506 7.0 
193.0274 999.0 
194.0302 48.0 
195.0314 8.0 
224.0697 53.0 
END IONS

BEGIN IONS
SYNON=2-dimethoxyphosphinothioylsulfanyl-N-methylacetamide
INCHIKEY=MCWXGJITAZMZEV-UHFFFAOYSA-N
INCHI=InChI=1S/C5H12NO3PS2/c1-6-5(7)4-12-10(11,8-2)9-3/h4H2,1-3H3,(H,6,7)
SMILES=P(SCC(NC)=O)(OC)(OC)=S
INSTRUMENT_TYPE=LC-ESI-QTOF
INSTRUMENT=Bruker maXis Impact
COLLISION_ENERGY=40 eV
FORMULA=C5H12NO3PS2
PARENT=230.0069
SPLASH=splash10-00di-0900000000-3604a83f4707c27dddf7
NUM_PEAKS=8
COMPOUND_NAME=Dimethoate
SPECTRUM_ID=MSBNK-Athens_Univ-AU300904
ADDUCT=[M+H]+
MS_LEVEL=MS2
PRECURSOR_MZ=230.0069
IONMODE=positive
NOMINAL_MASS=229
PARENT_MASS=228.9996219
123.9983 34.0 
124.9822 999.0 
125.9847 27.0 
126.9781 36.0 
142.9927 388.0 
144.9886 20.0 
155.9708 10.0 
156.9543 66.0 
END IONS

BEGIN IONS
SYNON=2,2-dichloroethenyl dimethyl phosphate
INCHIKEY=OEBRKCOSUFCWJD-UHFFFAOYSA-N
INCHI=InChI=1S/C4H7Cl2O4P/c1-8-11(7,9-2)10-3-4(5)6/h3H,1-2H3
SMILES=COP(=O)(OC)OC=C(Cl)Cl
INSTRUMENT_TYPE=GC-APCI-QTOF
INSTRUMENT=Bruker 450 GC coupled to maXis Impact
COLLISION_ENERGY=30 eV
FORMULA=C4H7Cl2O4P
PARENT=220.9532
SPLASH=splash10-004i-0900000000-5df3b5d8f87031bfc150
NUM_PEAKS=9
COMPOUND_NAME=Dichlorvos
SPECTRUM_ID=MSBNK-Athens_Univ-AU591103
ADDUCT=[M+H]+
MS_LEVEL=MS2
PRECURSOR_MZ=220.9532
IONMODE=positive
NOMINAL_MASS=220
PARENT_MASS=219.9459
48.983 8.0 
78.9929 45.0 
93.0089 22.0 
112.9993 18.0 
127.015 999.0 
130.964 18.0 
144.9789 63.0 
169.9487 9.0 
184.9732 62.0 
END IONS

BEGIN IONS
SYNON=2,2-dichloroethenyl dimethyl phosphate
INCHIKEY=OEBRKCOSUFCWJD-UHFFFAOYSA-N
INCHI=InChI=1S/C4H7Cl2O4P/c1-8-11(7,9-2)10-3-4(5)6/h3H,1-2H3
SMILES=COP(=O)(OC)OC=C(Cl)Cl
INSTRUMENT_TYPE=LC-ESI-QTOF
INSTRUMENT=Bruker maXis Impact
COLLISION_ENERGY=10 eV
FORMULA=C4H7Cl2O4P
PARENT=220.9532
SPLASH=splash10-00di-0090000000-e92cae44e4b860addba7
NUM_PEAKS=7
COMPOUND_NAME=Dichlorvos
SPECTRUM_ID=MSBNK-Athens_Univ-AU260001
ADDUCT=[M+H]+
MS_LEVEL=MS2
PRECURSOR_MZ=220.9532
IONMODE=positive
NOMINAL_MASS=220
PARENT_MASS=219.9459007
109.0048 5.0 
127.0143 12.0 
144.9802 46.0 
146.978 10.0 
220.9527 999.0 
221.955 50.0 
222.9494 624.0 
END IONS

BEGIN IONS
SYNON=dimethoxy-(3-methyl-4-methylsulfanylphenoxy)-sulfanylidene-$l^{5}-phosphane
INCHIKEY=PNVJTZOFSHSLTO-UHFFFAOYSA-N
INCHI=InChI=1S/C10H15O3PS2/c1-8-7-9(5-6-10(8)16-4)13-14(15,11-2)12-3/h5-7H,1-4H3
SMILES=COP(=S)(OC)OC1=CC(C)=C(SC)C=C1
INSTRUMENT_TYPE=LC-ESI-QTOF
INSTRUMENT=Bruker maXis Impact
COLLISION_ENERGY=10 eV
FORMULA=C10H15O3PS2
PARENT=279.0273
SPLASH=splash10-004i-0090000000-cfc6cc7271f15039d91e
NUM_PEAKS=12
COMPOUND_NAME=Fenthion
SPECTRUM_ID=MSBNK-Athens_Univ-AU315501
ADDUCT=[M+H]+
MS_LEVEL=MS2
PRECURSOR_MZ=279.0273
IONMODE=positive
NOMINAL_MASS=278
PARENT_MASS=278.0200230
124.9814 8.0 
137.0407 10.0 
138.0488 13.0 
149.0221 19.0 
169.013 58.0 
170.0158 5.0 
185.0441 5.0 
205.0855 7.0 
247.0008 252.0 
248.003 28.0 
248.9961 24.0 
279.0272 999.0 
END IONS

BEGIN IONS
SYNON=[2-(dimethylamino)-5,6-dimethylpyrimidin-4-yl] N,N-dimethylcarbamate
INCHIKEY=YFGYUFNIOHWBOB-UHFFFAOYSA-N
INCHI=InChI=1S/C11H18N4O2/c1-7-8(2)12-10(14(3)4)13-9(7)17-11(16)15(5)6/h1-6H3
SMILES=CN(C)C(=O)OC1=C(C)C(C)=NC(=N1)N(C)C
INSTRUMENT_TYPE=LC-ESI-QTOF
INSTRUMENT=Bruker maXis Impact
COLLISION_ENERGY=10 eV
FORMULA=C11H18N4O2
PARENT=239.1503
SPLASH=splash10-000i-0290000000-ad3a89f6a20d11c4b200
NUM_PEAKS=4
COMPOUND_NAME=Pirimicarb
SPECTRUM_ID=MSBNK-Athens_Univ-AU257701
ADDUCT=[M+H]+
MS_LEVEL=MS2
PRECURSOR_MZ=239.1503
IONMODE=positive
NOMINAL_MASS=238
PARENT_MASS=238.1429758
182.1278 193.0 
183.1304 15.0 
195.1593 17.0 
239.1509 999.0 
END IONS

BEGIN IONS
SYNON=diethoxy-(6-methyl-2-propan-2-ylpyrimidin-4-yl)oxy-sulfanylidene-$l^{5}-phosphane
INCHIKEY=FHIVAFMUCKRCQO-UHFFFAOYSA-N
INCHI=InChI=1S/C12H21N2O3PS/c1-6-15-18(19,16-7-2)17-11-8-10(5)13-12(14-11)9(3)4/h8-9H,6-7H2,1-5H3
SMILES=CCOP(=S)(OCC)OC1=NC(=NC(C)=C1)C(C)C
INSTRUMENT_TYPE=LC-ESI-QTOF
INSTRUMENT=Bruker maXis Impact
COLLISION_ENERGY=40 eV
FORMULA=C12H21N2O3PS
PARENT=305.1083
SPLASH=splash10-0gb9-0900000000-109fa8436bb829f5f481
NUM_PEAKS=9
COMPOUND_NAME=Diazinon
SPECTRUM_ID=MSBNK-Athens_Univ-AU312404
ADDUCT=[M+H]+
MS_LEVEL=MS2
PRECURSOR_MZ=305.1083
IONMODE=positive
NOMINAL_MASS=304
PARENT_MASS=304.1010502
124.9814 7.0 
135.0907 27.0 
137.07 5.0 
138.0774 7.0 
153.1013 684.0 
167.0623 5.0 
169.0787 999.0 
231.0345 8.0 
249.0451 5.0 
END IONS

BEGIN IONS
SYNON=[2-(dimethylamino)-5,6-dimethylpyrimidin-4-yl] N,N-dimethylcarbamate
INCHIKEY=YFGYUFNIOHWBOB-UHFFFAOYSA-N
INCHI=InChI=1S/C11H18N4O2/c1-7-8(2)12-10(14(3)4)13-9(7)17-11(16)15(5)6/h1-6H3
SMILES=CN(C)C(=O)OC1=C(C)C(C)=NC(=N1)N(C)C
INSTRUMENT_TYPE=LC-ESI-QTOF
INSTRUMENT=Bruker maXis Impact
COLLISION_ENERGY=Ramp 19.4-29.1 eV
FORMULA=C11H18N4O2
PARENT=239.1503
SPLASH=splash10-00e9-9610000000-7f9bd9e735a91364b724
NUM_PEAKS=16
COMPOUND_NAME=Pirimicarb
SPECTRUM_ID=MSBNK-Athens_Univ-AU257706
ADDUCT=[M+H]+
MS_LEVEL=MS2
PRECURSOR_MZ=239.1503
IONMODE=positive
NOMINAL_MASS=238
PARENT_MASS=238.1429758
56.0126 6.0 
72.0446 999.0 
83.0237 6.0 
85.0758 64.0 
109.0769 9.0 
137.0701 41.0 
138.0772 13.0 
150.1019 27.0 
152.0808 7.0 
166.0966 6.0 
167.1041 15.0 
182.1279 588.0 
183.1312 60.0 
195.1598 30.0 
239.15 161.0 
240.1529 23.0 
END IONS

BEGIN IONS
SYNON=4-dimethoxyphosphinothioyloxy-N,N-diethyl-6-methylpyrimidin-2-amine
INCHIKEY=QHOQHJPRIBSPCY-UHFFFAOYSA-N
INCHI=InChI=1S/C11H20N3O3PS/c1-6-14(7-2)11-12-9(3)8-10(13-11)17-18(19,15-4)16-5/h8H,6-7H2,1-5H3
SMILES=CCN(CC)C1=NC(C)=CC(OP(=S)(OC)OC)=N1
INSTRUMENT_TYPE=LC-ESI-QTOF
INSTRUMENT=Bruker maXis Impact
COLLISION_ENERGY=40 eV
FORMULA=C11H20N3O3PS
PARENT=306.1036
SPLASH=splash10-03ki-0900000000-da9c7e07e169b91c33b7
NUM_PEAKS=76
COMPOUND_NAME=Pirimiphos-methyl
SPECTRUM_ID=MSBNK-Athens_Univ-AU257504
ADDUCT=[M+H]+
MS_LEVEL=MS2
PRECURSOR_MZ=306.1036
IONMODE=positive
NOMINAL_MASS=305
PARENT_MASS=305.0962991
108.0555 17.0 
109.0755 5.0 
118.0048 5.0 
119.0591 19.0 
121.0621 9.0 
123.0544 18.0 
123.0908 70.0 
124.0944 6.0 
124.9812 583.0 
125.9841 14.0 
126.9767 24.0 
127.0147 8.0 
134.0701 13.0 
134.9654 39.0 
135.0774 8.0 
136.086 724.0 
137.0106 11.0 
137.0697 5.0 
137.0891 56.0 
137.1061 8.0 
138.0655 6.0 
140.0272 5.0 
140.0807 48.0 
142.9916 320.0 
143.9944 10.0 
144.9868 14.0 
147.0306 8.0 
147.115 11.0 
149.0349 10.0 
150.0306 16.0 
151.0255 263.0 
152.0288 12.0 
152.0804 21.0 
152.9754 18.0 
153.0464 7.0 
154.0417 10.0 
156.0579 16.0 
159.0306 27.0 
163.0074 8.0 
164.1172 999.0 
165.0409 43.0 
165.1206 87.0 
166.0426 17.0 
166.096 12.0 
166.9916 5.0 
167.9865 16.0 
168.058 44.0 
168.1118 182.0 
169.0621 6.0 
169.1155 20.0 
175.9911 11.0 
177.0411 5.0 
179.057 209.0 
180.0595 15.0 
182.0726 17.0 
184.0888 14.0 
191.0553 6.0 
194.1283 6.0 
196.0881 6.0 
196.1432 46.0 
197.1463 7.0 
207.0884 46.0 
208.0197 11.0 
218.0135 31.0 
233.0149 16.0 
236.0247 44.0 
244.0858 5.0 
246.0452 67.0 
247.0485 5.0 
250.04 19.0 
264.0573 11.0 
274.0768 18.0 
278.0714 44.0 
279.0747 6.0 
306.1028 39.0 
307.1063 6.0 
END IONS

BEGIN IONS
SYNON=methyl (1E)-N-(methylcarbamoyloxy)ethanimidothioate
INCHIKEY=UHXUZOCRWCRNSJ-QPJJXVBHSA-N
INCHI=InChI=1S/C5H10N2O2S/c1-4(10-3)7-9-5(8)6-2/h1-3H3,(H,6,8)/b7-4+
SMILES=CNC(=O)O\N=C(/C)SC
INSTRUMENT_TYPE=LC-ESI-QTOF
INSTRUMENT=Bruker maXis Impact
COLLISION_ENERGY=10 eV
FORMULA=C5H10N2O2S
PARENT=163.0536
SPLASH=splash10-03di-0900000000-dbe9637764c2b5d02189
NUM_PEAKS=5
COMPOUND_NAME=Methomyl
SPECTRUM_ID=MSBNK-Athens_Univ-AU261901
ADDUCT=[M+H]+
MS_LEVEL=MS2
PRECURSOR_MZ=163.0536
IONMODE=positive
NOMINAL_MASS=162
PARENT_MASS=162.0462986
106.0308 41.0 
122.0256 132.0 
163.0525 999.0 
164.0547 71.0 
165.0499 65.0 
END IONS

BEGIN IONS
SYNON=[2-chloro-1-(2,4-dichlorophenyl)ethenyl] diethyl phosphate
INCHIKEY=FSAVDKDHPDSCTO-UHFFFAOYSA-N
INCHI=InChI=1S/C12H14Cl3O4P/c1-3-17-20(16,18-4-2)19-12(8-13)10-6-5-9(14)7-11(10)15/h5-8H,3-4H2,1-2H3
SMILES=CCOP(=O)(OCC)OC(=CCl)C1=C(Cl)C=C(Cl)C=C1
INSTRUMENT_TYPE=LC-ESI-QTOF
INSTRUMENT=Bruker maXis Impact
COLLISION_ENERGY=10 eV
FORMULA=C12H14Cl3O4P
PARENT=358.9768
SPLASH=splash10-0a4i-0809000000-d8b8d1c66fd6bdf80564
NUM_PEAKS=11
COMPOUND_NAME=Chlorfenvinphos
SPECTRUM_ID=MSBNK-Athens_Univ-AU260901
ADDUCT=[M+H]+
MS_LEVEL=MS2
PRECURSOR_MZ=358.9768
IONMODE=positive
NOMINAL_MASS=358
PARENT_MASS=357.9695286
127.0144 118.0 
155.0457 999.0 
156.0489 30.0 
204.9365 52.0 
205.9384 5.0 
206.9332 39.0 
330.9454 49.0 
332.9419 41.0 
358.9769 546.0 
359.98 59.0 
360.9741 470.0 
END IONS

BEGIN IONS
SYNON=dimethyl [(E)-4-(methylamino)-4-oxobut-2-en-2-yl] phosphate
INCHIKEY=KRTSDMXIXPKRQR-AATRIKPKSA-N
INCHI=InChI=1S/C7H14NO5P/c1-6(5-7(9)8-2)13-14(10,11-3)12-4/h5H,1-4H3,(H,8,9)/b6-5+
SMILES=C/C(=C\C(=N\C)\O)/OP(=O)(OC)OC
INSTRUMENT_TYPE=LC-ESI-QTOF
INSTRUMENT=Bruker maXis Impact
COLLISION_ENERGY=30 eV
FORMULA=C7H14NO5P
PARENT=224.0682
SPLASH=splash10-004i-0900000000-62b02093267f5b04a4c6
NUM_PEAKS=4
COMPOUND_NAME=Monocrotophos
SPECTRUM_ID=MSBNK-Athens_Univ-AU313303
ADDUCT=[M+H]+
MS_LEVEL=MS2
PRECURSOR_MZ=224.0682
IONMODE=positive
NOMINAL_MASS=223
PARENT_MASS=223.0609592
109.0053 15.0 
127.0158 999.0 
128.0192 23.0 
129.0195 8.0 
END IONS

BEGIN IONS
SYNON=(3,5-dimethyl-4-methylsulfanylphenyl) N-methylcarbamate
INCHIKEY=YFBPRJGDJKVWAH-UHFFFAOYSA-N
INCHI=InChI=1S/C11H15NO2S/c1-7-5-9(14-11(13)12-3)6-8(2)10(7)15-4/h5-6H,1-4H3,(H,12,13)
SMILES=CNC(=O)OC1=CC(C)=C(SC)C(C)=C1
INSTRUMENT_TYPE=LC-ESI-QTOF
INSTRUMENT=Bruker maXis Impact
COLLISION_ENERGY=30 eV
FORMULA=C11H15NO2S
PARENT=226.0896
SPLASH=splash10-00di-0900000000-2d0367c075a614a2088a
NUM_PEAKS=12
COMPOUND_NAME=Methiocarb
SPECTRUM_ID=MSBNK-Athens_Univ-AU258003
ADDUCT=[M+H]+
MS_LEVEL=MS2
PRECURSOR_MZ=226.0896
IONMODE=positive
NOMINAL_MASS=225
PARENT_MASS=225.0823497
121.064 999.0 
122.0714 591.0 
123.0759 68.0 
124.0797 5.0 
126.0487 5.0 
139.0192 5.0 
141.0718 5.0 
153.0352 29.0 
154.0432 101.0 
155.0463 9.0 
169.0668 147.0 
170.0698 18.0 
END IONS

BEGIN IONS
SYNON=naphthalen-1-yl N-methylcarbamate
INCHIKEY=CVXBEEMKQHEXEN-UHFFFAOYSA-N
INCHI=InChI=1S/C12H11NO2/c1-13-12(14)15-11-8-4-6-9-5-2-3-7-10(9)11/h2-8H,1H3,(H,13,14)
SMILES=CNC(=O)OC1=C2C=CC=CC2=CC=C1
INSTRUMENT_TYPE=LC-ESI-QTOF
INSTRUMENT=Bruker maXis Impact
COLLISION_ENERGY=20 eV
FORMULA=C12H11NO2
PARENT=202.0863
SPLASH=splash10-0002-0900000000-091e8aaa4333a1bf45bf
NUM_PEAKS=8
COMPOUND_NAME=Carbaryl
SPECTRUM_ID=MSBNK-Athens_Univ-AU262402
ADDUCT=[M+H]+
MS_LEVEL=MS2
PRECURSOR_MZ=202.0863
IONMODE=positive
NOMINAL_MASS=201
PARENT_MASS=201.0789786
115.0537 19.0 
117.0692 45.0 
118.0723 6.0 
127.0532 31.0 
145.0639 999.0 
146.0671 87.0 
147.0703 5.0 
202.0843 16.0 
END IONS

BEGIN IONS
SYNON=naphthalen-1-yl N-methylcarbamate
INCHIKEY=CVXBEEMKQHEXEN-UHFFFAOYSA-N
INCHI=InChI=1S/C12H11NO2/c1-13-12(14)15-11-8-4-6-9-5-2-3-7-10(9)11/h2-8H,1H3,(H,13,14)
SMILES=CNC(=O)OC1=C2C=CC=CC2=CC=C1
INSTRUMENT_TYPE=LC-ESI-QTOF
INSTRUMENT=Bruker maXis Impact
COLLISION_ENERGY=30 eV
FORMULA=C12H11NO2
PARENT=202.0863
SPLASH=splash10-0002-0900000000-df40f1c33a3861b3f461
NUM_PEAKS=11
COMPOUND_NAME=Carbaryl
SPECTRUM_ID=MSBNK-Athens_Univ-AU262403
ADDUCT=[M+H]+
MS_LEVEL=MS2
PRECURSOR_MZ=202.0863
IONMODE=positive
NOMINAL_MASS=201
PARENT_MASS=201.0789786
115.0538 102.0 
116.0581 14.0 
117.0693 163.0 
118.0725 20.0 
126.0453 25.0 
127.0534 175.0 
128.0573 22.0 
144.0559 16.0 
145.064 999.0 
146.0672 101.0 
147.0695 6.0 
END IONS

BEGIN IONS
SYNON=naphthalen-1-yl N-methylcarbamate
INCHIKEY=CVXBEEMKQHEXEN-UHFFFAOYSA-N
INCHI=InChI=1S/C12H11NO2/c1-13-12(14)15-11-8-4-6-9-5-2-3-7-10(9)11/h2-8H,1H3,(H,13,14)
SMILES=CNC(=O)OC1=C2C=CC=CC2=CC=C1
INSTRUMENT_TYPE=LC-ESI-QTOF
INSTRUMENT=Bruker maXis Impact
COLLISION_ENERGY=Ramp 18.1-27.1 eV
FORMULA=C12H11NO2
PARENT=202.0863
SPLASH=splash10-0udi-3390000000-e3319bb06e0ddfbe143e
NUM_PEAKS=15
COMPOUND_NAME=Carbaryl
SPECTRUM_ID=MSBNK-Athens_Univ-AU262406
ADDUCT=[M+H]+
MS_LEVEL=MS2
PRECURSOR_MZ=202.0863
IONMODE=positive
NOMINAL_MASS=201
PARENT_MASS=201.0789786
67.0534 6.0 
68.0241 156.0 
79.0053 18.0 
81.0694 9.0 
90.0105 14.0 
95.0861 7.0 
96.0563 194.0 
97.059 8.0 
124.0868 265.0 
125.0895 14.0 
146.0224 14.0 
174.0534 134.0 
175.0555 5.0 
202.085 999.0 
203.0879 77.0 
END IONS

BEGIN IONS
SYNON=dimethoxy-(4-nitrophenoxy)-sulfanylidene-lambda5-phosphane
INCHIKEY=RLBIQVVOMOPOHC-UHFFFAOYSA-N
INCHI=InChI=1S/C8H10NO5PS/c1-12-15(16,13-2)14-8-5-3-7(4-6-8)9(10)11/h3-6H,1-2H3
SMILES=COP(=S)(OC)OC1=CC=C(C=C1)[N+]([O-])=O
INSTRUMENT_TYPE=LC-ESI-QTOF
INSTRUMENT=Bruker maXis Impact
COLLISION_ENERGY=10 eV
FORMULA=C8H10NO5PS
PARENT=264.009
SPLASH=splash10-03di-0090000000-15e8dcb1e86714c83dac
NUM_PEAKS=7
COMPOUND_NAME=Parathion-methyl
SPECTRUM_ID=MSBNK-Athens_Univ-AU261601
ADDUCT=[M+H]+
MS_LEVEL=MS2
PRECURSOR_MZ=264.009
IONMODE=positive
NOMINAL_MASS=263
PARENT_MASS=263.0017300
124.9814 24.0 
142.9924 19.0 
231.9838 21.0 
249.9938 108.0 
264.0079 999.0 
265.0116 125.0 
266.0082 46.0 
END IONS

BEGIN IONS
SYNON=N-[methoxy(methylsulfanyl)phosphoryl]acetamide
INCHIKEY=YASYVMFAVPKPKE-UHFFFAOYSA-N
INCHI=InChI=1S/C4H10NO3PS/c1-4(6)5-9(7,8-2)10-3/h1-3H3,(H,5,6,7)
SMILES=CC(=O)NP(=O)(OC)SC
INSTRUMENT_TYPE=LC-ESI-QTOF
INSTRUMENT=Bruker maXis Impact
COLLISION_ENERGY=20 eV
FORMULA=C4H10NO3PS
PARENT=184.0192
SPLASH=splash10-0006-0900000000-b5e15df827df66737b54
NUM_PEAKS=9
COMPOUND_NAME=Acephate
SPECTRUM_ID=MSBNK-Athens_Univ-AU311102
ADDUCT=[M+H]+
MS_LEVEL=MS2
PRECURSOR_MZ=184.0192
IONMODE=positive
NOMINAL_MASS=183
PARENT_MASS=183.0119008
110.9661 9.0 
124.982 184.0 
126.9771 9.0 
128.9769 8.0 
136.0156 10.0 
142.0083 44.0 
142.9928 999.0 
143.9947 33.0 
144.9884 43.0 
END IONS

BEGIN IONS
SYNON=(3,5-dimethyl-4-methylsulfanylphenyl) N-methylcarbamate
INCHIKEY=YFBPRJGDJKVWAH-UHFFFAOYSA-N
INCHI=InChI=1S/C11H15NO2S/c1-7-5-9(14-11(13)12-3)6-8(2)10(7)15-4/h5-6H,1-4H3,(H,12,13)
SMILES=CNC(=O)OC1=CC(C)=C(SC)C(C)=C1
INSTRUMENT_TYPE=LC-ESI-QTOF
INSTRUMENT=Bruker maXis Impact
COLLISION_ENERGY=10 eV
FORMULA=C11H15NO2S
PARENT=226.0896
SPLASH=splash10-014i-0900000000-52ef47c24c6e0d16c087
NUM_PEAKS=6
COMPOUND_NAME=Methiocarb
SPECTRUM_ID=MSBNK-Athens_Univ-AU258001
ADDUCT=[M+H]+
MS_LEVEL=MS2
PRECURSOR_MZ=226.0896
IONMODE=positive
NOMINAL_MASS=225
PARENT_MASS=225.0823497
121.0638 72.0 
122.0701 12.0 
169.0672 999.0 
170.0702 86.0 
171.0628 33.0 
226.0887 33.0 
END IONS

BEGIN IONS
SYNON=4-dimethoxyphosphinothioyloxy-N,N-diethyl-6-methylpyrimidin-2-amine
INCHIKEY=QHOQHJPRIBSPCY-UHFFFAOYSA-N
INCHI=InChI=1S/C11H20N3O3PS/c1-6-14(7-2)11-12-9(3)8-10(13-11)17-18(19,15-4)16-5/h8H,6-7H2,1-5H3
SMILES=CCN(CC)C1=NC(C)=CC(OP(=S)(OC)OC)=N1
INSTRUMENT_TYPE=LC-ESI-QTOF
INSTRUMENT=Bruker maXis Impact
COLLISION_ENERGY=20 eV
FORMULA=C11H20N3O3PS
PARENT=306.1036
SPLASH=splash10-0a4i-0209000000-4c797aa758b270524560
NUM_PEAKS=14
COMPOUND_NAME=Pirimiphos-methyl
SPECTRUM_ID=MSBNK-Athens_Univ-AU257502
ADDUCT=[M+H]+
MS_LEVEL=MS2
PRECURSOR_MZ=306.1036
IONMODE=positive
NOMINAL_MASS=305
PARENT_MASS=305.0962991
124.981 7.0 
136.0859 24.0 
164.1172 341.0 
165.1201 25.0 
196.1437 10.0 
207.0885 21.0 
233.0138 7.0 
246.0453 6.0 
274.0772 23.0 
278.072 63.0 
279.0745 6.0 
306.1043 999.0 
307.1065 194.0 
308.1012 46.0 
END IONS

BEGIN IONS
SYNON=methyl (1E)-N-(methylcarbamoyloxy)ethanimidothioate
INCHIKEY=UHXUZOCRWCRNSJ-QPJJXVBHSA-N
INCHI=InChI=1S/C5H10N2O2S/c1-4(10-3)7-9-5(8)6-2/h1-3H3,(H,6,8)/b7-4+
SMILES=CNC(=O)O\N=C(/C)SC
INSTRUMENT_TYPE=LC-ESI-QTOF
INSTRUMENT=Bruker maXis Impact
COLLISION_ENERGY=Ramp 16.7-25.0 eV
FORMULA=C5H10N2O2S
PARENT=163.0536
SPLASH=splash10-052r-9000000000-242948d80351baf2f8f9
NUM_PEAKS=16
COMPOUND_NAME=Methomyl
SPECTRUM_ID=MSBNK-Athens_Univ-AU261906
ADDUCT=[M+H]+
MS_LEVEL=MS2
PRECURSOR_MZ=163.0536
IONMODE=positive
NOMINAL_MASS=162
PARENT_MASS=162.0462986
44.9797 48.0 
46.9947 79.0 
56.049 155.0 
58.0281 326.0 
59.032 6.0 
61.01 88.0 
65.0048 70.0 
71.9896 11.0 
72.9977 261.0 
74.9934 13.0 
88.0215 999.0 
89.0244 30.0 
90.0174 26.0 
106.0333 190.0 
107.0349 7.0 
108.0285 10.0 
END IONS

BEGIN IONS
SYNON=2-dimethoxyphosphinothioylsulfanyl-N-methylacetamide
INCHIKEY=MCWXGJITAZMZEV-UHFFFAOYSA-N
INCHI=InChI=1S/C5H12NO3PS2/c1-6-5(7)4-12-10(11,8-2)9-3/h4H2,1-3H3,(H,6,7)
SMILES=P(SCC(NC)=O)(OC)(OC)=S
INSTRUMENT_TYPE=LC-ESI-QTOF
INSTRUMENT=Bruker maXis Impact
COLLISION_ENERGY=30 eV
FORMULA=C5H12NO3PS2
PARENT=230.0069
SPLASH=splash10-00di-0900000000-091f90e90ec1446161f0
NUM_PEAKS=11
COMPOUND_NAME=Dimethoate
SPECTRUM_ID=MSBNK-Athens_Univ-AU300903
ADDUCT=[M+H]+
MS_LEVEL=MS2
PRECURSOR_MZ=230.0069
IONMODE=positive
NOMINAL_MASS=229
PARENT_MASS=228.9996219
123.9983 25.0 
124.9823 999.0 
125.9845 18.0 
126.9779 29.0 
142.993 332.0 
143.9952 8.0 
144.9886 14.0 
155.97 15.0 
156.9542 118.0 
158.95 9.0 
170.9699 52.0 
END IONS

BEGIN IONS
SYNON=ethyl 2-diethoxyphosphinothioyloxy-5-methylpyrazolo[1,5-a]pyrimidine-6-carboxylate
INCHIKEY=JOOMJVFZQRQWKR-UHFFFAOYSA-N
INCHI=InChI=1S/C14H20N3O5PS/c1-5-19-14(18)11-9-17-12(15-10(11)4)8-13(16-17)22-23(24,20-6-2)21-7-3/h8-9H,5-7H2,1-4H3
SMILES=CCOC(=O)C1=CN2N=C(OP(=S)(OCC)OCC)C=C2N=C1C
INSTRUMENT_TYPE=LC-ESI-QTOF
INSTRUMENT=Bruker maXis Impact
COLLISION_ENERGY=50 eV
FORMULA=C14H20N3O5PS
PARENT=374.0934
SPLASH=splash10-002f-0900000000-ab0fed0afde06a00b57f
NUM_PEAKS=38
COMPOUND_NAME=Pyrazophos
SPECTRUM_ID=MSBNK-Athens_Univ-AU260405
ADDUCT=[M+H]+
MS_LEVEL=MS2
PRECURSOR_MZ=374.0934
IONMODE=positive
NOMINAL_MASS=373
PARENT_MASS=373.0861284
113.9534 5.0 
114.9607 5.0 
120.0548 9.0 
121.039 7.0 
139.0491 28.0 
148.0495 90.0 
149.0337 11.0 
149.0524 9.0 
150.0647 7.0 
152.0559 5.0 
159.0413 22.0 
165.0105 10.0 
166.0597 93.0 
167.063 6.0 
169.9672 13.0 
176.0445 400.0 
177.0283 27.0 
177.0515 133.0 
178.0576 23.0 
181.0054 23.0 
183.0211 72.0 
184.0239 6.0 
192.021 7.0 
194.0552 999.0 
195.0579 64.0 
196.0593 5.0 
199.0165 6.0 
205.0836 19.0 
206.0898 8.0 
208.0167 10.0 
210.0323 24.0 
211.0527 10.0 
222.0863 52.0 
223.0892 6.0 
238.0634 5.0 
253.9776 5.0 
256.0122 7.0 
271.9882 8.0 
END IONS

BEGIN IONS
SYNON=2-dimethoxyphosphinothioylsulfanyl-N-methylacetamide
INCHIKEY=MCWXGJITAZMZEV-UHFFFAOYSA-N
INCHI=InChI=1S/C5H12NO3PS2/c1-6-5(7)4-12-10(11,8-2)9-3/h4H2,1-3H3,(H,6,7)
SMILES=P(SCC(NC)=O)(OC)(OC)=S
INSTRUMENT_TYPE=LC-ESI-QTOF
INSTRUMENT=Bruker maXis Impact
COLLISION_ENERGY=20 eV
FORMULA=C5H12NO3PS2
PARENT=230.0069
SPLASH=splash10-00di-0900000000-4b7d9b9a7ff55227a662
NUM_PEAKS=18
COMPOUND_NAME=Dimethoate
SPECTRUM_ID=MSBNK-Athens_Univ-AU300902
ADDUCT=[M+H]+
MS_LEVEL=MS2
PRECURSOR_MZ=230.0069
IONMODE=positive
NOMINAL_MASS=229
PARENT_MASS=228.9996219
119.9938 8.0 
123.9981 16.0 
124.9823 999.0 
125.9849 16.0 
126.9781 25.0 
142.9929 312.0 
143.9955 9.0 
144.9886 15.0 
155.9702 17.0 
156.9545 133.0 
158.9504 11.0 
170.9703 573.0 
171.9723 18.0 
172.9662 39.0 
197.9814 27.0 
198.9655 179.0 
199.9679 9.0 
200.9613 13.0 
END IONS

BEGIN IONS
SYNON=diethoxy-(6-methyl-2-propan-2-ylpyrimidin-4-yl)oxy-sulfanylidene-$l^{5}-phosphane
INCHIKEY=FHIVAFMUCKRCQO-UHFFFAOYSA-N
INCHI=InChI=1S/C12H21N2O3PS/c1-6-15-18(19,16-7-2)17-11-8-10(5)13-12(14-11)9(3)4/h8-9H,6-7H2,1-5H3
SMILES=CCOP(=S)(OCC)OC1=NC(=NC(C)=C1)C(C)C
INSTRUMENT_TYPE=LC-ESI-QTOF
INSTRUMENT=Bruker maXis Impact
COLLISION_ENERGY=10 eV
FORMULA=C12H21N2O3PS
PARENT=305.1083
SPLASH=splash10-0a4i-0009000000-d239df985b8529964c59
NUM_PEAKS=5
COMPOUND_NAME=Diazinon
SPECTRUM_ID=MSBNK-Athens_Univ-AU312401
ADDUCT=[M+H]+
MS_LEVEL=MS2
PRECURSOR_MZ=305.1083
IONMODE=positive
NOMINAL_MASS=304
PARENT_MASS=304.1010502
169.0786 62.0 
305.1119 999.0 
306.1116 36.0 
307.1064 81.0 
308.1078 4.0 
END IONS

BEGIN IONS
SYNON=N-[methoxy(methylsulfanyl)phosphoryl]acetamide
INCHIKEY=YASYVMFAVPKPKE-UHFFFAOYSA-N
INCHI=InChI=1S/C4H10NO3PS/c1-4(6)5-9(7,8-2)10-3/h1-3H3,(H,5,6,7)
SMILES=CC(=O)NP(=O)(OC)SC
INSTRUMENT_TYPE=LC-ESI-QTOF
INSTRUMENT=Bruker maXis Impact
COLLISION_ENERGY=10 eV
FORMULA=C4H10NO3PS
PARENT=184.0192
SPLASH=splash10-0006-0900000000-f1cee01c176c28cca0db
NUM_PEAKS=6
COMPOUND_NAME=Acephate
SPECTRUM_ID=MSBNK-Athens_Univ-AU311101
ADDUCT=[M+H]+
MS_LEVEL=MS2
PRECURSOR_MZ=184.0192
IONMODE=positive
NOMINAL_MASS=183
PARENT_MASS=183.0119008
124.9821 19.0 
136.0158 8.0 
142.9929 999.0 
143.995 21.0 
144.9887 31.0 
184.0195 5.0 
END IONS

BEGIN IONS
SYNON=(3,5-dimethyl-4-methylsulfanylphenyl) N-methylcarbamate
INCHIKEY=YFBPRJGDJKVWAH-UHFFFAOYSA-N
INCHI=InChI=1S/C11H15NO2S/c1-7-5-9(14-11(13)12-3)6-8(2)10(7)15-4/h5-6H,1-4H3,(H,12,13)
SMILES=CNC(=O)OC1=CC(C)=C(SC)C(C)=C1
INSTRUMENT_TYPE=LC-ESI-QTOF
INSTRUMENT=Bruker maXis Impact
COLLISION_ENERGY=Ramp 18.9-28.4 eV
FORMULA=C11H15NO2S
PARENT=226.0896
SPLASH=splash10-00di-1900000000-39657db6a64a93e2659e
NUM_PEAKS=18
COMPOUND_NAME=Methiocarb
SPECTRUM_ID=MSBNK-Athens_Univ-AU258006
ADDUCT=[M+H]+
MS_LEVEL=MS2
PRECURSOR_MZ=226.0896
IONMODE=positive
NOMINAL_MASS=225
PARENT_MASS=225.0823497
77.038 7.0 
91.0543 64.0 
93.0703 154.0 
94.0733 11.0 
95.0495 19.0 
95.0857 5.0 
107.0495 14.0 
121.0647 999.0 
122.0716 442.0 
123.0767 42.0 
139.0748 30.0 
141.0725 9.0 
153.0361 25.0 
153.0894 5.0 
154.043 45.0 
169.0673 642.0 
170.0702 78.0 
171.0634 25.0 
END IONS

BEGIN IONS
SYNON=dimethyl [(E)-4-(methylamino)-4-oxobut-2-en-2-yl] phosphate
INCHIKEY=KRTSDMXIXPKRQR-AATRIKPKSA-N
INCHI=InChI=1S/C7H14NO5P/c1-6(5-7(9)8-2)13-14(10,11-3)12-4/h5H,1-4H3,(H,8,9)/b6-5+
SMILES=C/C(=C\C(=N\C)\O)/OP(=O)(OC)OC
INSTRUMENT_TYPE=LC-ESI-QTOF
INSTRUMENT=Bruker maXis Impact
COLLISION_ENERGY=20 eV
FORMULA=C7H14NO5P
PARENT=224.0682
SPLASH=splash10-004i-0900000000-5bef9f97534886d7bbc1
NUM_PEAKS=5
COMPOUND_NAME=Monocrotophos
SPECTRUM_ID=MSBNK-Athens_Univ-AU313302
ADDUCT=[M+H]+
MS_LEVEL=MS2
PRECURSOR_MZ=224.0682
IONMODE=positive
NOMINAL_MASS=223
PARENT_MASS=223.0609592
127.0158 999.0 
128.0188 27.0 
129.0195 6.0 
167.0468 6.0 
193.0264 18.0 
END IONS

BEGIN IONS
SYNON=4-dimethoxyphosphinothioyloxy-N,N-diethyl-6-methylpyrimidin-2-amine
INCHIKEY=QHOQHJPRIBSPCY-UHFFFAOYSA-N
INCHI=InChI=1S/C11H20N3O3PS/c1-6-14(7-2)11-12-9(3)8-10(13-11)17-18(19,15-4)16-5/h8H,6-7H2,1-5H3
SMILES=CCN(CC)C1=NC(C)=CC(OP(=S)(OC)OC)=N1
INSTRUMENT_TYPE=LC-ESI-QTOF
INSTRUMENT=Bruker maXis Impact
COLLISION_ENERGY=50 eV
FORMULA=C11H20N3O3PS
PARENT=306.1036
SPLASH=splash10-0fkc-0900000000-2dbaf0bdb980144de286
NUM_PEAKS=102
COMPOUND_NAME=Pirimiphos-methyl
SPECTRUM_ID=MSBNK-Athens_Univ-AU257505
ADDUCT=[M+H]+
MS_LEVEL=MS2
PRECURSOR_MZ=306.1036
IONMODE=positive
NOMINAL_MASS=305
PARENT_MASS=305.0962991
108.0548 29.0 
109.004 15.0 
109.0584 7.0 
115.0524 7.0 
117.0685 13.0 
118.0038 24.0 
118.0504 7.0 
118.9989 36.0 
119.0595 28.0 
119.0842 15.0 
120.0549 28.0 
121.0613 24.0 
122.0707 9.0 
123.0546 66.0 
123.0908 54.0 
124.0611 24.0 
124.0906 7.0 
124.981 999.0 
125.0154 55.0 
125.9826 35.0 
126.0227 10.0 
126.0376 10.0 
126.9773 62.0 
127.0142 25.0 
127.0313 7.0 
132.0937 16.0 
133.0625 8.0 
134.0702 57.0 
134.9655 140.0 
135.0191 7.0 
135.0785 13.0 
136.0858 353.0 
136.9646 6.0 
137.0095 112.0 
137.071 10.0 
137.0889 39.0 
137.1066 12.0 
138.0653 45.0 
139.0304 15.0 
139.0713 8.0 
140.0274 20.0 
140.0807 131.0 
141.0342 26.0 
141.0844 14.0 
142.9914 608.0 
143.995 28.0 
144.9874 39.0 
147.0304 17.0 
147.1156 16.0 
148.0859 15.0 
149.0351 8.0 
149.094 6.0 
150.0311 16.0 
150.1024 7.0 
151.0255 558.0 
152.0274 22.0 
152.0807 76.0 
152.9758 107.0 
153.0473 8.0 
153.0856 12.0 
153.9715 21.0 
154.0422 92.0 
154.0954 10.0 
155.0435 9.0 
156.0573 34.0 
159.0304 43.0 
163.0088 11.0 
164.1171 245.0 
165.0411 101.0 
165.1193 27.0 
166.0061 8.0 
166.0421 72.0 
166.0961 48.0 
166.9903 7.0 
167.0486 10.0 
167.9863 20.0 
168.0579 136.0 
168.1119 166.0 
169.0599 17.0 
169.1151 16.0 
170.0536 8.0 
175.9923 15.0 
177.0421 8.0 
179.0568 137.0 
180.06 20.0 
180.1132 8.0 
181.0666 7.0 
182.0737 44.0 
183.0786 6.0 
184.0891 15.0 
187.0658 7.0 
191.0592 7.0 
194.1265 8.0 
196.0874 7.0 
196.145 12.0 
202.0386 7.0 
207.0883 10.0 
209.012 8.0 
214.0199 6.0 
218.015 29.0 
236.0257 26.0 
246.0442 14.0 
END IONS

BEGIN IONS
SYNON=4-dimethoxyphosphinothioyloxy-N,N-diethyl-6-methylpyrimidin-2-amine
INCHIKEY=QHOQHJPRIBSPCY-UHFFFAOYSA-N
INCHI=InChI=1S/C11H20N3O3PS/c1-6-14(7-2)11-12-9(3)8-10(13-11)17-18(19,15-4)16-5/h8H,6-7H2,1-5H3
SMILES=CCN(CC)C1=NC(C)=CC(OP(=S)(OC)OC)=N1
INSTRUMENT_TYPE=LC-ESI-QTOF
INSTRUMENT=Bruker maXis Impact
COLLISION_ENERGY=Ramp 21.7-32.6 eV
FORMULA=C11H20N3O3PS
PARENT=306.1036
SPLASH=splash10-0a4i-1914000000-23d3d7de304e85ea1bdb
NUM_PEAKS=40
COMPOUND_NAME=Pirimiphos-methyl
SPECTRUM_ID=MSBNK-Athens_Univ-AU257506
ADDUCT=[M+H]+
MS_LEVEL=MS2
PRECURSOR_MZ=306.1036
IONMODE=positive
NOMINAL_MASS=305
PARENT_MASS=305.0962991
67.0288 158.0 
68.0319 5.0 
70.0395 12.0 
70.0647 8.0 
78.994 19.0 
84.0441 5.0 
88.0214 5.0 
95.0607 224.0 
96.0646 11.0 
100.0222 16.0 
108.0569 696.0 
109.0595 34.0 
109.077 47.0 
116.0536 6.0 
119.06 7.0 
123.0923 32.0 
124.9822 92.0 
127.0162 11.0 
136.0871 252.0 
137.0899 17.0 
142.9928 72.0 
151.0262 23.0 
164.1177 816.0 
165.1207 73.0 
168.1123 20.0 
179.0574 35.0 
196.144 28.0 
207.089 59.0 
223.066 5.0 
233.0145 20.0 
236.0251 9.0 
246.0459 31.0 
250.0408 15.0 
274.0771 54.0 
275.0801 7.0 
278.0726 156.0 
279.0754 17.0 
280.0684 6.0 
306.104 999.0 
308.1013 67.0 
END IONS

BEGIN IONS
SYNON=[2-chloro-1-(2,4-dichlorophenyl)ethenyl] diethyl phosphate
INCHIKEY=FSAVDKDHPDSCTO-UHFFFAOYSA-N
INCHI=InChI=1S/C12H14Cl3O4P/c1-3-17-20(16,18-4-2)19-12(8-13)10-6-5-9(14)7-11(10)15/h5-8H,3-4H2,1-2H3
SMILES=CCOP(=O)(OCC)OC(=CCl)C1=C(Cl)C=C(Cl)C=C1
INSTRUMENT_TYPE=LC-ESI-QTOF
INSTRUMENT=Bruker maXis Impact
COLLISION_ENERGY=Ramp 22.8-34.1 eV
FORMULA=C12H14Cl3O4P
PARENT=358.9768
SPLASH=splash10-0a70-9460000000-d5c0755d43163b592de2
NUM_PEAKS=14
COMPOUND_NAME=Chlorfenvinphos
SPECTRUM_ID=MSBNK-Athens_Univ-AU260906
ADDUCT=[M+H]+
MS_LEVEL=MS2
PRECURSOR_MZ=358.9768
IONMODE=positive
NOMINAL_MASS=358
PARENT_MASS=357.9695286
57.0694 999.0 
67.0535 220.0 
71.0843 539.0 
81.069 180.0 
85.0996 208.0 
123.1158 182.0 
129.0527 160.0 
149.0224 273.0 
155.0439 192.0 
176.9502 196.0 
219.9559 204.0 
225.0415 566.0 
238.0806 620.0 
241.0387 182.0 
END IONS

BEGIN IONS
SYNON=N-[methoxy(methylsulfanyl)phosphoryl]acetamide
INCHIKEY=YASYVMFAVPKPKE-UHFFFAOYSA-N
INCHI=InChI=1S/C4H10NO3PS/c1-4(6)5-9(7,8-2)10-3/h1-3H3,(H,5,6,7)
SMILES=CC(=O)NP(=O)(OC)SC
INSTRUMENT_TYPE=LC-ESI-QTOF
INSTRUMENT=Bruker maXis Impact
COLLISION_ENERGY=30 eV
FORMULA=C4H10NO3PS
PARENT=184.0192
SPLASH=splash10-006x-0900000000-b5503e11cbf3959fafc4
NUM_PEAKS=8
COMPOUND_NAME=Acephate
SPECTRUM_ID=MSBNK-Athens_Univ-AU311109
ADDUCT=[M+H]+
MS_LEVEL=MS2
PRECURSOR_MZ=184.0192
IONMODE=positive
NOMINAL_MASS=183
PARENT_MASS=183.0119008
110.9673 46.0 
124.9822 770.0 
126.9787 38.0 
127.9688 20.0 
128.977 18.0 
142.0094 129.0 
142.9932 999.0 
144.9892 61.0 
END IONS

BEGIN IONS
SYNON=2-dimethoxyphosphinothioylsulfanyl-N-methylacetamide
INCHIKEY=MCWXGJITAZMZEV-UHFFFAOYSA-N
INCHI=InChI=1S/C5H12NO3PS2/c1-6-5(7)4-12-10(11,8-2)9-3/h4H2,1-3H3,(H,6,7)
SMILES=P(SCC(NC)=O)(OC)(OC)=S
INSTRUMENT_TYPE=LC-ESI-QTOF
INSTRUMENT=Bruker maXis Impact
COLLISION_ENERGY=30 eV
FORMULA=C5H12NO3PS2
PARENT=230.0069
SPLASH=splash10-00di-0900000000-d9d065c8322ab300bbc5
NUM_PEAKS=13
COMPOUND_NAME=Dimethoate
SPECTRUM_ID=MSBNK-Athens_Univ-AU300909
ADDUCT=[M+H]+
MS_LEVEL=MS2
PRECURSOR_MZ=230.0069
IONMODE=positive
NOMINAL_MASS=229
PARENT_MASS=228.9996219
119.9938 5.0 
123.9984 37.0 
124.9826 999.0 
125.9851 25.0 
126.978 41.0 
142.9931 382.0 
143.9953 16.0 
144.9894 22.0 
155.9707 20.0 
156.9544 150.0 
158.9505 12.0 
170.9702 74.0 
172.9669 5.0 
END IONS

BEGIN IONS
SYNON=(3,5-dimethyl-4-methylsulfanylphenyl) N-methylcarbamate
INCHIKEY=YFBPRJGDJKVWAH-UHFFFAOYSA-N
INCHI=InChI=1S/C11H15NO2S/c1-7-5-9(14-11(13)12-3)6-8(2)10(7)15-4/h5-6H,1-4H3,(H,12,13)
SMILES=CNC(=O)OC1=CC(C)=C(SC)C(C)=C1
INSTRUMENT_TYPE=LC-ESI-QTOF
INSTRUMENT=Bruker maXis Impact
COLLISION_ENERGY=20 eV
FORMULA=C11H15NO2S
PARENT=226.0896
SPLASH=splash10-00xr-0900000000-72b2adbcb90625250a39
NUM_PEAKS=9
COMPOUND_NAME=Methiocarb
SPECTRUM_ID=MSBNK-Athens_Univ-AU258002
ADDUCT=[M+H]+
MS_LEVEL=MS2
PRECURSOR_MZ=226.0896
IONMODE=positive
NOMINAL_MASS=225
PARENT_MASS=225.0823497
121.0639 999.0 
122.0708 328.0 
123.0765 40.0 
141.0724 12.0 
153.0356 21.0 
154.0431 31.0 
169.0668 793.0 
170.0696 92.0 
171.0627 37.0 
END IONS

BEGIN IONS
SYNON=diethoxyphosphinothioylsulfanylmethylsulfanyl-diethoxy-sulfanylidene-lambda5-phosphane
INCHIKEY=RIZMRRKBZQXFOY-UHFFFAOYSA-N
INCHI=InChI=1S/C9H22O4P2S4/c1-5-10-14(16,11-6-2)18-9-19-15(17,12-7-3)13-8-4/h5-9H2,1-4H3
SMILES=CCOP(=S)(OCC)SCSP(=S)(OCC)OCC
INSTRUMENT_TYPE=LC-ESI-QTOF
INSTRUMENT=Bruker maXis Impact
COLLISION_ENERGY=10 eV
FORMULA=C9H22O4P2S4
PARENT=384.9949
SPLASH=splash10-0002-0910000000-9d3e63dd1351554a9809
NUM_PEAKS=16
COMPOUND_NAME=Ethion
SPECTRUM_ID=MSBNK-Athens_Univ-AU260701
ADDUCT=[M+H]+
MS_LEVEL=MS2
PRECURSOR_MZ=384.9949
IONMODE=positive
NOMINAL_MASS=384
PARENT_MASS=383.9876164
142.9374 40.0 
153.0121 26.0 
154.9735 8.0 
170.9687 117.0 
171.0232 13.0 
171.9713 5.0 
172.9652 8.0 
199.0004 999.0 
200.0029 41.0 
200.9959 52.0 
215.0316 32.0 
230.9725 35.0 
339.007 21.0 
384.9943 46.0 
385.9967 6.0 
386.9915 9.0 
END IONS

BEGIN IONS
SYNON=dimethyl [(E)-4-(methylamino)-4-oxobut-2-en-2-yl] phosphate
INCHIKEY=KRTSDMXIXPKRQR-AATRIKPKSA-N
INCHI=InChI=1S/C7H14NO5P/c1-6(5-7(9)8-2)13-14(10,11-3)12-4/h5H,1-4H3,(H,8,9)/b6-5+
SMILES=C/C(=C\C(=N\C)\O)/OP(=O)(OC)OC
INSTRUMENT_TYPE=LC-ESI-QTOF
INSTRUMENT=Bruker maXis Impact
COLLISION_ENERGY=40 eV
FORMULA=C7H14NO5P
PARENT=224.0682
SPLASH=splash10-004i-0900000000-31c044afec62150ed234
NUM_PEAKS=4
COMPOUND_NAME=Monocrotophos
SPECTRUM_ID=MSBNK-Athens_Univ-AU313310
ADDUCT=[M+H]+
MS_LEVEL=MS2
PRECURSOR_MZ=224.0682
IONMODE=positive
NOMINAL_MASS=223
PARENT_MASS=223.0609592
109.0053 26.0 
127.0158 999.0 
128.0194 34.0 
129.0199 12.0 
END IONS

BEGIN IONS
SYNON=ethyl 2-diethoxyphosphinothioyloxy-5-methylpyrazolo[1,5-a]pyrimidine-6-carboxylate
INCHIKEY=JOOMJVFZQRQWKR-UHFFFAOYSA-N
INCHI=InChI=1S/C14H20N3O5PS/c1-5-19-14(18)11-9-17-12(15-10(11)4)8-13(16-17)22-23(24,20-6-2)21-7-3/h8-9H,5-7H2,1-4H3
SMILES=CCOC(=O)C1=CN2N=C(OP(=S)(OCC)OCC)C=C2N=C1C
INSTRUMENT_TYPE=LC-ESI-QTOF
INSTRUMENT=Bruker maXis Impact
COLLISION_ENERGY=40 eV
FORMULA=C14H20N3O5PS
PARENT=374.0934
SPLASH=splash10-0006-0930000000-5706d8a5f70135ed2960
NUM_PEAKS=27
COMPOUND_NAME=Pyrazophos
SPECTRUM_ID=MSBNK-Athens_Univ-AU260404
ADDUCT=[M+H]+
MS_LEVEL=MS2
PRECURSOR_MZ=374.0934
IONMODE=positive
NOMINAL_MASS=373
PARENT_MASS=373.0861284
113.9528 5.0 
148.0492 17.0 
159.041 6.0 
166.0597 25.0 
169.9675 5.0 
176.0443 167.0 
177.0283 8.0 
177.0513 70.0 
178.0573 9.0 
181.0055 9.0 
183.0211 40.0 
192.021 10.0 
194.0551 999.0 
195.0579 59.0 
196.0601 5.0 
205.0836 30.0 
206.0902 9.0 
208.0163 14.0 
210.0323 50.0 
211.0526 22.0 
222.0867 316.0 
223.0893 26.0 
236.0474 9.0 
238.0638 35.0 
253.9772 5.0 
271.9881 11.0 
300.0192 6.0 
END IONS

BEGIN IONS
SYNON=N-[methoxy(methylsulfanyl)phosphoryl]acetamide
INCHIKEY=YASYVMFAVPKPKE-UHFFFAOYSA-N
INCHI=InChI=1S/C4H10NO3PS/c1-4(6)5-9(7,8-2)10-3/h1-3H3,(H,5,6,7)
SMILES=CC(=O)NP(=O)(OC)SC
INSTRUMENT_TYPE=LC-ESI-QTOF
INSTRUMENT=Bruker maXis Impact
COLLISION_ENERGY=30 eV
FORMULA=C4H10NO3PS
PARENT=184.0192
SPLASH=splash10-006x-0900000000-9383d699f5d76d8695d7
NUM_PEAKS=7
COMPOUND_NAME=Acephate
SPECTRUM_ID=MSBNK-Athens_Univ-AU311103
ADDUCT=[M+H]+
MS_LEVEL=MS2
PRECURSOR_MZ=184.0192
IONMODE=positive
NOMINAL_MASS=183
PARENT_MASS=183.0119008
110.9666 21.0 
124.9824 748.0 
126.9787 40.0 
128.977 22.0 
142.0092 138.0 
142.9927 999.0 
144.9879 49.0 
END IONS

BEGIN IONS
SYNON=[2-(dimethylamino)-5,6-dimethylpyrimidin-4-yl] N,N-dimethylcarbamate
INCHIKEY=YFGYUFNIOHWBOB-UHFFFAOYSA-N
INCHI=InChI=1S/C11H18N4O2/c1-7-8(2)12-10(14(3)4)13-9(7)17-11(16)15(5)6/h1-6H3
SMILES=CN(C)C(=O)OC1=C(C)C(C)=NC(=N1)N(C)C
INSTRUMENT_TYPE=LC-ESI-QTOF
INSTRUMENT=Bruker maXis Impact
COLLISION_ENERGY=40 eV
FORMULA=C11H18N4O2
PARENT=239.1503
SPLASH=splash10-0f80-0900000000-a09762de452b297d2637
NUM_PEAKS=31
COMPOUND_NAME=Pirimicarb
SPECTRUM_ID=MSBNK-Athens_Univ-AU257704
ADDUCT=[M+H]+
MS_LEVEL=MS2
PRECURSOR_MZ=239.1503
IONMODE=positive
NOMINAL_MASS=238
PARENT_MASS=238.1429758
109.0752 25.0 
123.0536 78.0 
123.0893 8.0 
124.0622 196.0 
125.0679 24.0 
134.0686 8.0 
135.0762 8.0 
136.0869 7.0 
137.0699 645.0 
138.0774 849.0 
139.0842 126.0 
140.0848 17.0 
149.0938 15.0 
150.1012 412.0 
151.1051 59.0 
152.0805 999.0 
153.0837 98.0 
154.0845 9.0 
156.0518 69.0 
157.0549 7.0 
164.079 12.0 
165.1119 12.0 
166.0957 114.0 
167.1037 266.0 
180.112 57.0 
181.1142 12.0 
182.127 859.0 
183.1307 83.0 
184.1308 7.0 
195.1593 49.0 
199.0963 7.0 
END IONS

BEGIN IONS
SYNON=4-dimethoxyphosphinothioyloxy-N,N-diethyl-6-methylpyrimidin-2-amine
INCHIKEY=QHOQHJPRIBSPCY-UHFFFAOYSA-N
INCHI=InChI=1S/C11H20N3O3PS/c1-6-14(7-2)11-12-9(3)8-10(13-11)17-18(19,15-4)16-5/h8H,6-7H2,1-5H3
SMILES=CCN(CC)C1=NC(C)=CC(OP(=S)(OC)OC)=N1
INSTRUMENT_TYPE=LC-ESI-QTOF
INSTRUMENT=Bruker maXis Impact
COLLISION_ENERGY=30 eV
FORMULA=C11H20N3O3PS
PARENT=306.1036
SPLASH=splash10-03di-0911000000-8079d876a368aa476b4b
NUM_PEAKS=24
COMPOUND_NAME=Pirimiphos-methyl
SPECTRUM_ID=MSBNK-Athens_Univ-AU257503
ADDUCT=[M+H]+
MS_LEVEL=MS2
PRECURSOR_MZ=306.1036
IONMODE=positive
NOMINAL_MASS=305
PARENT_MASS=305.0962991
123.0907 14.0 
124.9812 70.0 
136.0861 246.0 
137.0889 15.0 
142.9916 31.0 
151.0255 23.0 
164.1172 999.0 
165.1201 69.0 
168.112 18.0 
179.0568 39.0 
196.1434 24.0 
207.0886 49.0 
218.0143 5.0 
233.0138 13.0 
236.0246 7.0 
246.0454 30.0 
250.0402 13.0 
264.056 5.0 
274.0769 27.0 
278.0721 82.0 
279.0748 8.0 
306.1036 294.0 
307.1062 32.0 
308.1011 9.0 
END IONS

BEGIN IONS
SYNON=2,2-dichloroethenyl dimethyl phosphate
INCHIKEY=OEBRKCOSUFCWJD-UHFFFAOYSA-N
INCHI=InChI=1S/C4H7Cl2O4P/c1-8-11(7,9-2)10-3-4(5)6/h3H,1-2H3
SMILES=COP(=O)(OC)OC=C(Cl)Cl
INSTRUMENT_TYPE=LC-ESI-QTOF
INSTRUMENT=Bruker maXis Impact
COLLISION_ENERGY=30 eV
FORMULA=C4H7Cl2O4P
PARENT=220.9532
SPLASH=splash10-004i-0900000000-a348cff83bc7d08babb7
NUM_PEAKS=6
COMPOUND_NAME=Dichlorvos
SPECTRUM_ID=MSBNK-Athens_Univ-AU260003
ADDUCT=[M+H]+
MS_LEVEL=MS2
PRECURSOR_MZ=220.9532
IONMODE=positive
NOMINAL_MASS=220
PARENT_MASS=219.9459007
109.0044 72.0 
127.0147 999.0 
144.9807 128.0 
146.9783 38.0 
170.9586 50.0 
220.9512 47.0 
END IONS

BEGIN IONS
SYNON=dimethoxy-(4-nitrophenoxy)-sulfanylidene-lambda5-phosphane
INCHIKEY=RLBIQVVOMOPOHC-UHFFFAOYSA-N
INCHI=InChI=1S/C8H10NO5PS/c1-12-15(16,13-2)14-8-5-3-7(4-6-8)9(10)11/h3-6H,1-2H3
SMILES=COP(=S)(OC)OC1=CC=C(C=C1)[N+]([O-])=O
INSTRUMENT_TYPE=LC-ESI-QTOF
INSTRUMENT=Bruker maXis Impact
COLLISION_ENERGY=50 eV
FORMULA=C8H10NO5PS
PARENT=264.009
SPLASH=splash10-0udi-0900000000-a3f8d21b4ea1ed136f26
NUM_PEAKS=4
COMPOUND_NAME=Parathion-methyl
SPECTRUM_ID=MSBNK-Athens_Univ-AU261605
ADDUCT=[M+H]+
MS_LEVEL=MS2
PRECURSOR_MZ=264.009
IONMODE=positive
NOMINAL_MASS=263
PARENT_MASS=263.0017300
124.9816 410.0 
153.9605 520.0 
154.9691 999.0 
185.9534 292.0 
END IONS

BEGIN IONS
SYNON=[2-chloro-1-(2,4-dichlorophenyl)ethenyl] diethyl phosphate
INCHIKEY=FSAVDKDHPDSCTO-UHFFFAOYSA-N
INCHI=InChI=1S/C12H14Cl3O4P/c1-3-17-20(16,18-4-2)19-12(8-13)10-6-5-9(14)7-11(10)15/h5-8H,3-4H2,1-2H3
SMILES=CCOP(=O)(OCC)OC(=CCl)C1=C(Cl)C=C(Cl)C=C1
INSTRUMENT_TYPE=LC-ESI-QTOF
INSTRUMENT=Bruker maXis Impact
COLLISION_ENERGY=40 eV
FORMULA=C12H14Cl3O4P
PARENT=358.9768
SPLASH=splash10-014i-0930000000-b529ca22ba8484db52a5
NUM_PEAKS=14
COMPOUND_NAME=Chlorfenvinphos
SPECTRUM_ID=MSBNK-Athens_Univ-AU260904
ADDUCT=[M+H]+
MS_LEVEL=MS2
PRECURSOR_MZ=358.9768
IONMODE=positive
NOMINAL_MASS=358
PARENT_MASS=357.9695286
127.0142 63.0 
132.9833 7.0 
155.0452 32.0 
168.9592 34.0 
169.967 999.0 
170.9704 75.0 
171.9641 384.0 
172.9674 21.0 
196.9656 13.0 
198.9637 6.0 
204.9364 312.0 
205.9397 31.0 
206.9332 286.0 
207.9371 12.0 
END IONS

BEGIN IONS
SYNON=dimethoxy-(3-methyl-4-methylsulfanylphenoxy)-sulfanylidene-lambda5-phosphane
INCHIKEY=PNVJTZOFSHSLTO-UHFFFAOYSA-N
INCHI=InChI=1S/C10H15O3PS2/c1-8-7-9(5-6-10(8)16-4)13-14(15,11-2)12-3/h5-7H,1-4H3
SMILES=COP(=S)(OC)OC1=CC=C(SC)C(C)=C1
INSTRUMENT_TYPE=LC-ESI-QTOF
INSTRUMENT=Bruker maXis Impact
COLLISION_ENERGY=Ramp 20.8-31.3 eV
FORMULA=C10H15O3PS2
PARENT=279.0273
SPLASH=splash10-014i-0920000000-8a1299bc8dadd71acd41
NUM_PEAKS=56
COMPOUND_NAME=Fenthion
SPECTRUM_ID=MSBNK-Athens_Univ-AU315506
ADDUCT=[M+H]+
MS_LEVEL=MS2
PRECURSOR_MZ=279.0273
IONMODE=positive
NOMINAL_MASS=278
PARENT_MASS=278.0200230
44.9796 11.0 
58.9939 5.0 
78.9937 36.0 
91.0546 9.0 
97.0103 11.0 
105.0708 86.0 
106.0734 9.0 
121.0092 18.0 
122.0174 26.0 
123.0252 44.0 
124.0324 5.0 
124.981 109.0 
125.0405 35.0 
127.0151 227.0 
135.0256 10.0 
136.0331 13.0 
137.0409 58.0 
138.049 339.0 
139.0521 20.0 
140.045 7.0 
142.9919 394.0 
143.9937 9.0 
144.9877 15.0 
149.0224 7.0 
153.0358 383.0 
153.9893 63.0 
154.0396 30.0 
154.993 9.0 
155.0324 12.0 
155.9862 7.0 
168.9861 147.0 
169.0132 999.0 
169.9893 12.0 
170.0167 116.0 
170.9841 5.0 
171.0087 80.0 
172.013 5.0 
185.0441 40.0 
185.9884 8.0 
200.0048 63.0 
201.01 8.0 
201.9664 5.0 
214.9741 60.0 
216.97 6.0 
231.0224 7.0 
231.9767 106.0 
232.0318 9.0 
232.9833 12.0 
233.9733 6.0 
247.0007 416.0 
248.0026 38.0 
248.9967 29.0 
265.0101 18.0 
279.0266 125.0 
280.0301 13.0 
281.0239 9.0 
END IONS

BEGIN IONS
SYNON=dimethoxy-(3-methyl-4-methylsulfanylphenoxy)-sulfanylidene-$l^{5}-phosphane
INCHIKEY=PNVJTZOFSHSLTO-UHFFFAOYSA-N
INCHI=InChI=1S/C10H15O3PS2/c1-8-7-9(5-6-10(8)16-4)13-14(15,11-2)12-3/h5-7H,1-4H3
SMILES=COP(=S)(OC)OC1=CC(C)=C(SC)C=C1
INSTRUMENT_TYPE=LC-ESI-QTOF
INSTRUMENT=Bruker maXis Impact
COLLISION_ENERGY=50 eV
FORMULA=C10H15O3PS2
PARENT=279.0273
SPLASH=splash10-0g4i-0900000000-89a0ce8c9a4d4a49d57c
NUM_PEAKS=35
COMPOUND_NAME=Fenthion
SPECTRUM_ID=MSBNK-Athens_Univ-AU315505
ADDUCT=[M+H]+
MS_LEVEL=MS2
PRECURSOR_MZ=279.0273
IONMODE=positive
NOMINAL_MASS=278
PARENT_MASS=278.0200230
121.0099 721.0 
121.0269 38.0 
122.0172 281.0 
123.0059 28.0 
123.025 239.0 
124.0321 25.0 
124.9811 207.0 
125.0407 247.0 
134.0172 25.0 
135.0249 171.0 
136.0319 79.0 
137.0039 26.0 
137.0404 74.0 
138.0501 55.0 
139.019 31.0 
142.9912 106.0 
149.0217 103.0 
152.9815 587.0 
153.0354 314.0 
153.9887 314.0 
154.0401 46.0 
154.9757 43.0 
154.9948 57.0 
155.9843 27.0 
166.9958 43.0 
168.0039 22.0 
168.986 999.0 
169.0126 177.0 
170.0188 33.0 
170.9808 43.0 
185.9902 23.0 
199.9499 98.0 
200.9604 22.0 
202.991 21.0 
214.9737 32.0 
END IONS

BEGIN IONS
SYNON=diethoxyphosphinothioylsulfanylmethylsulfanyl-diethoxy-sulfanylidene-lambda5-phosphane
INCHIKEY=RIZMRRKBZQXFOY-UHFFFAOYSA-N
INCHI=InChI=1S/C9H22O4P2S4/c1-5-10-14(16,11-6-2)18-9-19-15(17,12-7-3)13-8-4/h5-9H2,1-4H3
SMILES=CCOP(=S)(OCC)SCSP(=S)(OCC)OCC
INSTRUMENT_TYPE=LC-ESI-QTOF
INSTRUMENT=Bruker maXis Impact
COLLISION_ENERGY=Ramp 23.3-34.9 eV
FORMULA=C9H22O4P2S4
PARENT=384.9949
SPLASH=splash10-006x-0900000000-50347027f5737047a4a1
NUM_PEAKS=32
COMPOUND_NAME=Ethion
SPECTRUM_ID=MSBNK-Athens_Univ-AU260706
ADDUCT=[M+H]+
MS_LEVEL=MS2
PRECURSOR_MZ=384.9949
IONMODE=positive
NOMINAL_MASS=384
PARENT_MASS=383.9876164
46.9946 10.0 
75.026 10.0 
96.9513 14.0 
114.9621 210.0 
116.9573 12.0 
124.9812 51.0 
126.9429 14.0 
128.9215 5.0 
132.9729 5.0 
142.9375 999.0 
143.9386 27.0 
144.9333 80.0 
153.0121 92.0 
154.0152 6.0 
154.974 11.0 
156.9528 5.0 
158.9687 5.0 
160.9477 7.0 
170.9687 492.0 
171.023 189.0 
171.9708 27.0 
172.0263 15.0 
172.9642 51.0 
173.0189 7.0 
174.9095 16.0 
184.9831 12.0 
199.0 265.0 
200.0025 19.0 
200.9963 17.0 
202.9407 15.0 
215.0319 11.0 
230.972 34.0 
END IONS

BEGIN IONS
SYNON=2-dimethoxyphosphinothioylsulfanyl-N-methylacetamide
INCHIKEY=MCWXGJITAZMZEV-UHFFFAOYSA-N
INCHI=InChI=1S/C5H12NO3PS2/c1-6-5(7)4-12-10(11,8-2)9-3/h4H2,1-3H3,(H,6,7)
SMILES=CNC(=O)CSP(=S)(OC)OC
INSTRUMENT_TYPE=LC-ESI-QTOF
INSTRUMENT=Bruker maXis Impact
COLLISION_ENERGY=Ramp 19.1-28.6 eV
FORMULA=C5H12NO3PS2
PARENT=230.0069
SPLASH=splash10-00di-2900000000-8fdc6016ad32fb85d0db
NUM_PEAKS=37
COMPOUND_NAME=Dimethoate
SPECTRUM_ID=MSBNK-Athens_Univ-AU300906
ADDUCT=[M+H]+
MS_LEVEL=MS2
PRECURSOR_MZ=230.0069
IONMODE=positive
NOMINAL_MASS=229
PARENT_MASS=228.9996219
44.9796 10.0 
46.9945 18.0 
58.9943 10.0 
61.0101 30.0 
62.0178 21.0 
76.021 8.0 
78.9939 196.0 
88.0214 483.0 
89.0243 14.0 
90.0174 19.0 
92.0264 5.0 
93.0101 63.0 
104.0166 15.0 
110.967 8.0 
119.9938 18.0 
123.9977 41.0 
124.9813 999.0 
125.9829 21.0 
126.9774 33.0 
127.0159 10.0 
128.9769 22.0 
140.9586 5.0 
142.9923 688.0 
143.995 23.0 
144.988 39.0 
155.969 30.0 
156.953 196.0 
157.9547 5.0 
158.9495 14.0 
170.9688 474.0 
171.9709 24.0 
172.965 44.0 
188.9797 5.0 
197.98 39.0 
198.964 245.0 
199.9673 12.0 
200.9598 18.0 
END IONS

BEGIN IONS
SYNON=dimethyl [(E)-4-(methylamino)-4-oxobut-2-en-2-yl] phosphate
INCHIKEY=KRTSDMXIXPKRQR-AATRIKPKSA-N
INCHI=InChI=1S/C7H14NO5P/c1-6(5-7(9)8-2)13-14(10,11-3)12-4/h5H,1-4H3,(H,8,9)/b6-5+
SMILES=C/C(=C\C(=N\C)\O)/OP(=O)(OC)OC
INSTRUMENT_TYPE=LC-ESI-QTOF
INSTRUMENT=Bruker maXis Impact
COLLISION_ENERGY=20 eV
FORMULA=C7H14NO5P
PARENT=224.0682
SPLASH=splash10-004i-0900000000-ad548ae68650a802328d
NUM_PEAKS=5
COMPOUND_NAME=Monocrotophos
SPECTRUM_ID=MSBNK-Athens_Univ-AU313308
ADDUCT=[M+H]+
MS_LEVEL=MS2
PRECURSOR_MZ=224.0682
IONMODE=positive
NOMINAL_MASS=223
PARENT_MASS=223.0609592
127.0162 999.0 
128.0196 21.0 
129.0202 8.0 
167.0475 6.0 
193.0271 21.0 
END IONS

BEGIN IONS
SYNON=[2-(dimethylamino)-5,6-dimethylpyrimidin-4-yl] N,N-dimethylcarbamate
INCHIKEY=YFGYUFNIOHWBOB-UHFFFAOYSA-N
INCHI=InChI=1S/C11H18N4O2/c1-7-8(2)12-10(14(3)4)13-9(7)17-11(16)15(5)6/h1-6H3
SMILES=CN(C)C(=O)OC1=C(C)C(C)=NC(=N1)N(C)C
INSTRUMENT_TYPE=LC-ESI-QTOF
INSTRUMENT=Bruker maXis Impact
COLLISION_ENERGY=30 eV
FORMULA=C11H18N4O2
PARENT=239.1503
SPLASH=splash10-001i-0900000000-64f0c53a37ad1fc9273f
NUM_PEAKS=15
COMPOUND_NAME=Pirimicarb
SPECTRUM_ID=MSBNK-Athens_Univ-AU257703
ADDUCT=[M+H]+
MS_LEVEL=MS2
PRECURSOR_MZ=239.1503
IONMODE=positive
NOMINAL_MASS=238
PARENT_MASS=238.1429758
124.0619 9.0 
137.0699 170.0 
138.0771 88.0 
139.0829 10.0 
150.1014 118.0 
151.1047 12.0 
152.0802 57.0 
166.0959 18.0 
167.1039 73.0 
168.1087 9.0 
180.1118 12.0 
182.1279 999.0 
183.1304 88.0 
184.1328 5.0 
195.1591 30.0 
END IONS

BEGIN IONS
SYNON=N-[methoxy(methylsulfanyl)phosphoryl]acetamide
INCHIKEY=YASYVMFAVPKPKE-UHFFFAOYSA-N
INCHI=InChI=1S/C4H10NO3PS/c1-4(6)5-9(7,8-2)10-3/h1-3H3,(H,5,6,7)
SMILES=CC(=O)NP(=O)(OC)SC
INSTRUMENT_TYPE=LC-ESI-QTOF
INSTRUMENT=Bruker maXis Impact
COLLISION_ENERGY=10 eV
FORMULA=C4H10NO3PS
PARENT=184.0192
SPLASH=splash10-0006-0900000000-48ca80d718a4dee6939e
NUM_PEAKS=6
COMPOUND_NAME=Acephate
SPECTRUM_ID=MSBNK-Athens_Univ-AU311107
ADDUCT=[M+H]+
MS_LEVEL=MS2
PRECURSOR_MZ=184.0192
IONMODE=positive
NOMINAL_MASS=183
PARENT_MASS=183.0119008
124.9825 17.0 
136.0164 6.0 
142.9934 999.0 
143.9957 21.0 
144.9891 35.0 
184.02 6.0 
END IONS

BEGIN IONS
SYNON=diethoxy-(6-methyl-2-propan-2-ylpyrimidin-4-yl)oxy-sulfanylidene-$l^{5}-phosphane
INCHIKEY=FHIVAFMUCKRCQO-UHFFFAOYSA-N
INCHI=InChI=1S/C12H21N2O3PS/c1-6-15-18(19,16-7-2)17-11-8-10(5)13-12(14-11)9(3)4/h8-9H,6-7H2,1-5H3
SMILES=CCOP(=S)(OCC)OC1=NC(=NC(C)=C1)C(C)C
INSTRUMENT_TYPE=LC-ESI-QTOF
INSTRUMENT=Bruker maXis Impact
COLLISION_ENERGY=20 eV
FORMULA=C12H21N2O3PS
PARENT=305.1083
SPLASH=splash10-0ldi-0915000000-ced91e8448a6f8b1969d
NUM_PEAKS=11
COMPOUND_NAME=Diazinon
SPECTRUM_ID=MSBNK-Athens_Univ-AU312402
ADDUCT=[M+H]+
MS_LEVEL=MS2
PRECURSOR_MZ=305.1083
IONMODE=positive
NOMINAL_MASS=304
PARENT_MASS=304.1010502
114.9608 6.0 
124.9813 23.0 
153.1014 753.0 
169.0788 999.0 
181.1328 25.0 
231.0344 10.0 
249.0455 132.0 
277.0769 113.0 
305.1085 922.0 
306.1116 87.0 
307.1064 24.0 
END IONS

BEGIN IONS
SYNON=ethyl 2-diethoxyphosphinothioyloxy-5-methylpyrazolo[1,5-a]pyrimidine-6-carboxylate
INCHIKEY=JOOMJVFZQRQWKR-UHFFFAOYSA-N
INCHI=InChI=1S/C14H20N3O5PS/c1-5-19-14(18)11-9-17-12(15-10(11)4)8-13(16-17)22-23(24,20-6-2)21-7-3/h8-9H,5-7H2,1-4H3
SMILES=CCOC(=O)C1=CN2N=C(OP(=S)(OCC)OCC)C=C2N=C1C
INSTRUMENT_TYPE=LC-ESI-QTOF
INSTRUMENT=Bruker maXis Impact
COLLISION_ENERGY=10 eV
FORMULA=C14H20N3O5PS
PARENT=374.0934
SPLASH=splash10-00di-0009000000-7c5b8672ad5ecb235b1e
NUM_PEAKS=6
COMPOUND_NAME=Pyrazophos
SPECTRUM_ID=MSBNK-Athens_Univ-AU260401
ADDUCT=[M+H]+
MS_LEVEL=MS2
PRECURSOR_MZ=374.0934
IONMODE=positive
NOMINAL_MASS=373
PARENT_MASS=373.0861284
222.0869 16.0 
346.0627 14.0 
358.9773 11.0 
374.0945 999.0 
375.0972 157.0 
376.0922 38.0 
END IONS

BEGIN IONS
SYNON=[2-(dimethylamino)-5,6-dimethylpyrimidin-4-yl] N,N-dimethylcarbamate
INCHIKEY=YFGYUFNIOHWBOB-UHFFFAOYSA-N
INCHI=InChI=1S/C11H18N4O2/c1-7-8(2)12-10(14(3)4)13-9(7)17-11(16)15(5)6/h1-6H3
SMILES=CN(C)C(=O)OC1=C(C)C(C)=NC(=N1)N(C)C
INSTRUMENT_TYPE=LC-ESI-QTOF
INSTRUMENT=Bruker maXis Impact
COLLISION_ENERGY=50 eV
FORMULA=C11H18N4O2
PARENT=239.1503
SPLASH=splash10-0uki-0900000000-4ea03feff83f9746444e
NUM_PEAKS=27
COMPOUND_NAME=Pirimicarb
SPECTRUM_ID=MSBNK-Athens_Univ-AU257705
ADDUCT=[M+H]+
MS_LEVEL=MS2
PRECURSOR_MZ=239.1503
IONMODE=positive
NOMINAL_MASS=238
PARENT_MASS=238.1429758
109.0754 16.0 
121.073 16.0 
123.0541 258.0 
124.0619 219.0 
124.085 29.0 
125.0683 21.0 
134.0688 18.0 
136.086 26.0 
137.0698 271.0 
137.0923 14.0 
138.0773 589.0 
138.1018 54.0 
139.0841 99.0 
140.0873 13.0 
150.1017 77.0 
152.0804 999.0 
153.0832 125.0 
164.0804 20.0 
165.1107 16.0 
166.0959 135.0 
167.1027 73.0 
168.1101 19.0 
170.0675 101.0 
171.068 15.0 
180.1139 24.0 
182.1267 105.0 
195.1585 26.0 
END IONS

BEGIN IONS
SYNON=2-dimethoxyphosphinothioylsulfanyl-N-methylacetamide
INCHIKEY=MCWXGJITAZMZEV-UHFFFAOYSA-N
INCHI=InChI=1S/C5H12NO3PS2/c1-6-5(7)4-12-10(11,8-2)9-3/h4H2,1-3H3,(H,6,7)
SMILES=P(SCC(NC)=O)(OC)(OC)=S
INSTRUMENT_TYPE=LC-ESI-QTOF
INSTRUMENT=Bruker maXis Impact
COLLISION_ENERGY=10 eV
FORMULA=C5H12NO3PS2
PARENT=230.0069
SPLASH=splash10-0002-0910000000-d94739155fb715e3543b
NUM_PEAKS=13
COMPOUND_NAME=Dimethoate
SPECTRUM_ID=MSBNK-Athens_Univ-AU300908
ADDUCT=[M+H]+
MS_LEVEL=MS2
PRECURSOR_MZ=230.0069
IONMODE=positive
NOMINAL_MASS=229
PARENT_MASS=228.9996219
124.9824 62.0 
142.9929 39.0 
156.9542 10.0 
170.9703 142.0 
171.9727 6.0 
172.9665 11.0 
197.9814 34.0 
198.9658 999.0 
199.9681 44.0 
200.9616 61.0 
230.0083 155.0 
231.0105 9.0 
232.0044 11.0 
END IONS

BEGIN IONS
SYNON=dimethyl [(E)-4-(methylamino)-4-oxobut-2-en-2-yl] phosphate
INCHIKEY=KRTSDMXIXPKRQR-AATRIKPKSA-N
INCHI=InChI=1S/C7H14NO5P/c1-6(5-7(9)8-2)13-14(10,11-3)12-4/h5H,1-4H3,(H,8,9)/b6-5+
SMILES=C/C(=C\C(=N\C)\O)/OP(=O)(OC)OC
INSTRUMENT_TYPE=LC-ESI-QTOF
INSTRUMENT=Bruker maXis Impact
COLLISION_ENERGY=30 eV
FORMULA=C7H14NO5P
PARENT=224.0682
SPLASH=splash10-004i-0900000000-261d1360f47a3a7abe7a
NUM_PEAKS=4
COMPOUND_NAME=Monocrotophos
SPECTRUM_ID=MSBNK-Athens_Univ-AU313309
ADDUCT=[M+H]+
MS_LEVEL=MS2
PRECURSOR_MZ=224.0682
IONMODE=positive
NOMINAL_MASS=223
PARENT_MASS=223.0609592
109.0057 14.0 
127.0161 999.0 
128.0192 28.0 
129.02 9.0 
END IONS

BEGIN IONS
SYNON=2-dimethoxyphosphinothioylsulfanyl-N-methylacetamide
INCHIKEY=MCWXGJITAZMZEV-UHFFFAOYSA-N
INCHI=InChI=1S/C5H12NO3PS2/c1-6-5(7)4-12-10(11,8-2)9-3/h4H2,1-3H3,(H,6,7)
SMILES=P(SCC(NC)=O)(OC)(OC)=S
INSTRUMENT_TYPE=LC-ESI-QTOF
INSTRUMENT=Bruker maXis Impact
COLLISION_ENERGY=50 eV
FORMULA=C5H12NO3PS2
PARENT=230.0069
SPLASH=splash10-00di-0900000000-a1121794534c343e6c16
NUM_PEAKS=10
COMPOUND_NAME=Dimethoate
SPECTRUM_ID=MSBNK-Athens_Univ-AU300905
ADDUCT=[M+H]+
MS_LEVEL=MS2
PRECURSOR_MZ=230.0069
IONMODE=positive
NOMINAL_MASS=229
PARENT_MASS=228.9996219
110.9656 9.0 
123.9979 76.0 
124.9823 999.0 
125.9849 34.0 
126.9437 6.0 
126.9776 46.0 
142.9929 420.0 
144.9885 34.0 
155.9704 7.0 
156.9536 44.0 
END IONS

BEGIN IONS
SYNON=diethoxy-(6-methyl-2-propan-2-ylpyrimidin-4-yl)oxy-sulfanylidene-$l^{5}-phosphane
INCHIKEY=FHIVAFMUCKRCQO-UHFFFAOYSA-N
INCHI=InChI=1S/C12H21N2O3PS/c1-6-15-18(19,16-7-2)17-11-8-10(5)13-12(14-11)9(3)4/h8-9H,6-7H2,1-5H3
SMILES=CCOP(=S)(OCC)OC1=NC(=NC(C)=C1)C(C)C
INSTRUMENT_TYPE=LC-ESI-QTOF
INSTRUMENT=Bruker maXis Impact
COLLISION_ENERGY=30 eV
FORMULA=C12H21N2O3PS
PARENT=305.1083
SPLASH=splash10-0gb9-0900000000-48faf44580abfbba15e2
NUM_PEAKS=10
COMPOUND_NAME=Diazinon
SPECTRUM_ID=MSBNK-Athens_Univ-AU312403
ADDUCT=[M+H]+
MS_LEVEL=MS2
PRECURSOR_MZ=305.1083
IONMODE=positive
NOMINAL_MASS=304
PARENT_MASS=304.1010502
114.9607 6.0 
124.9812 24.0 
135.0906 8.0 
153.1013 915.0 
169.0789 999.0 
181.1324 13.0 
197.1097 5.0 
231.0347 15.0 
249.0453 43.0 
277.0763 4.0 
END IONS

BEGIN IONS
INCHIKEY=SBPBAQFWLVIOKP-UHFFFAOYSA-N
INCHI=InChI=1S/C9H11Cl3NO3PS/c1-3-14-17(18,15-4-2)16-9-7(11)5-6(10)8(12)13-9/h5H,3-4H2,1-2H3
SMILES=CCO[P](=S)(OCC)Oc1nc(Cl)c(Cl)cc1Cl
INSTRUMENT_TYPE=LC-ESI-QTOF
INSTRUMENT=TripleTOF 5600 SCIEX
COLLISION_ENERGY=100
FORMULA=C9H11Cl3NO3PS
PARENT=349.9336
SPLASH=splash10-0a4j-7900000000-27d1444cb2aa39310b15
NUM_PEAKS=18
COMPOUND_NAME=Chlorpyrifos
SPECTRUM_ID=MSBNK-BAFG-CSL2311107146
ADDUCT=[M+H]+
MS_LEVEL=MS2
PRECURSOR_MZ=349.9336
IONMODE=positive
NOMINAL_MASS=349
PARENT_MASS=348.9263
61.9849 26.0 
64.9817 154.0 
64.999 12.0 
71.979 29.0 
78.9426 290.0 
82.9461 19.0 
83.9769 50.0 
96.951 783.0 
96.9896 9.0 
97.9784 14.0 
106.9448 999.0 
108.9703 205.0 
109.9782 24.0 
118.9437 99.0 
133.9536 26.0 
143.9387 152.0 
144.9478 9.0 
179.9152 48.0 
END IONS

BEGIN IONS
INCHIKEY=YASYVMFAVPKPKE-UHFFFAOYSA-N
INCHI=InChI=1S/C4H10NO3PS/c1-4(6)5-9(7,8-2)10-3/h1-3H3,(H,5,6,7)
SMILES=CC(=O)NP(=O)(OC)SC
INSTRUMENT_TYPE=LC-ESI-QTOF
INSTRUMENT=TripleTOF 6600 SCIEX
COLLISION_ENERGY=40
FORMULA=C4H10NO3PS
PARENT=184.0192
SPLASH=splash10-0007-9100000000-743100b0bf53d2f6bbee
NUM_PEAKS=10
COMPOUND_NAME=Acephate
SPECTRUM_ID=MSBNK-BAFG-CSL23111014577
ADDUCT=[M+H]+
MS_LEVEL=MS2
PRECURSOR_MZ=184.0192
IONMODE=positive
NOMINAL_MASS=183
PARENT_MASS=183.0119
42.0324 159.0 
44.9781 99.0 
46.9933 319.0 
49.0096 999.0 
64.976 119.0 
78.9923 219.0 
94.0032 479.0 
94.9873 879.0 
110.9632 219.0 
124.9797 279.0 
END IONS

BEGIN IONS
INCHIKEY=DUEPRVBVGDRKAG-UHFFFAOYSA-N
INCHI=InChI=1S/C12H15NO3/c1-12(2)7-8-5-4-6-9(10(8)16-12)15-11(14)13-3/h4-6H,7H2,1-3H3,(H,13,14)
SMILES=CNC(=O)Oc1cccc2CC(C)(C)Oc12
INSTRUMENT_TYPE=LC-ESI-QTOF
INSTRUMENT=TripleTOF 5600 SCIEX
COLLISION_ENERGY=50
FORMULA=C12H15NO3
PARENT=222.1125
SPLASH=splash10-00di-6900000000-0e6b1721b4c36412b935
NUM_PEAKS=19
COMPOUND_NAME=Carbofuran
SPECTRUM_ID=MSBNK-BAFG-CSL2311095460
ADDUCT=[M+H]+
MS_LEVEL=MS2
PRECURSOR_MZ=222.1125
IONMODE=positive
NOMINAL_MASS=221
PARENT_MASS=221.1052
55.0234 13.0 
55.0602 69.0 
58.0337 30.0 
65.0428 59.0 
67.0582 95.0 
77.0418 314.0 
79.0558 16.0 
91.056 233.0 
95.0502 114.0 
103.0548 21.0 
104.0619 10.0 
105.0334 87.0 
107.0493 18.0 
117.0691 14.0 
119.0482 22.0 
119.0852 14.0 
123.0444 999.0 
131.0483 13.0 
137.0594 23.0 
END IONS

BEGIN IONS
INCHIKEY=JXSJBGJIGXNWCI-UHFFFAOYSA-N
INCHI=InChI=1S/C10H19O6PS2/c1-5-15-9(11)7-8(10(12)16-6-2)19-17(18,13-3)14-4/h8H,5-7H2,1-4H3
SMILES=CCOC(=O)CC(C(=O)OCC)SP(=S)(OC)OC
INSTRUMENT_TYPE=LC-ESI-QTOF
INSTRUMENT=TripleTOF 5600 SCIEX
COLLISION_ENERGY=60
FORMULA=C10H19O6PS2
PARENT=331.0433
SPLASH=splash10-006t-9500000000-c4b7a51bc5f78a0b2db6
NUM_PEAKS=12
COMPOUND_NAME=Malathion
SPECTRUM_ID=MSBNK-BAFG-CSL23111010799
ADDUCT=[M+H]+
MS_LEVEL=MS2
PRECURSOR_MZ=331.0433
IONMODE=positive
NOMINAL_MASS=330
PARENT_MASS=330.0361
46.9951 107.0 
71.0129 165.0 
78.9937 247.0 
80.9723 33.0 
86.9888 74.0 
98.9844 82.0 
99.0073 999.0 
110.9665 49.0 
118.963 49.0 
124.982 932.0 
127.0445 57.0 
142.9886 41.0 
END IONS

BEGIN IONS
INCHIKEY=YFBPRJGDJKVWAH-UHFFFAOYSA-N
INCHI=InChI=1S/C11H15NO2S/c1-7-5-9(14-11(13)12-3)6-8(2)10(7)15-4/h5-6H,1-4H3,(H,12,13)
SMILES=Cc1cc(cc(c1SC)C)OC(=O)NC
INSTRUMENT_TYPE=LC-ESI-QTOF
INSTRUMENT=TripleTOF 6600 SCIEX
COLLISION_ENERGY=150
FORMULA=C11H15NO2S
PARENT=226.0896
SPLASH=splash10-0udr-9000000000-2ad7db7b4cd2f94282c1
NUM_PEAKS=22
COMPOUND_NAME=Methiocarb
SPECTRUM_ID=MSBNK-BAFG-CSL23111027301
ADDUCT=[M+H]+
MS_LEVEL=MS2
PRECURSOR_MZ=226.0896
IONMODE=positive
NOMINAL_MASS=225
PARENT_MASS=225.0823
35.9966 71.0 
37.005 311.0 
37.9997 39.0 
38.0128 255.0 
39.0208 479.0 
43.969 39.0 
44.9765 239.0 
49.005 247.0 
50.0125 999.0 
51.0204 671.0 
59.9962 39.0 
61.0044 159.0 
62.0124 183.0 
63.0204 119.0 
65.0362 71.0 
67.9674 39.0 
68.976 167.0 
73.0056 39.0 
74.0118 111.0 
75.0201 31.0 
77.0361 47.0 
89.0348 47.0 
END IONS

BEGIN IONS
INCHIKEY=OEBRKCOSUFCWJD-UHFFFAOYSA-N
INCHI=InChI=1S/C4H7Cl2O4P/c1-8-11(7,9-2)10-3-4(5)6/h3H,1-2H3
SMILES=CO[P](=O)(OC)OC=C(Cl)Cl
INSTRUMENT_TYPE=LC-ESI-QTOF
INSTRUMENT=TripleTOF 5600 SCIEX
COLLISION_ENERGY=120
FORMULA=C4H7Cl2O4P
PARENT=220.9532
SPLASH=splash10-0a4i-9000000000-05bc4dba6028fca284a2
NUM_PEAKS=6
COMPOUND_NAME=Dichlorvos
SPECTRUM_ID=MSBNK-BAFG-CSL2311096041
ADDUCT=[M+H]+
MS_LEVEL=MS2
PRECURSOR_MZ=220.9532
IONMODE=positive
NOMINAL_MASS=220
PARENT_MASS=219.9459
46.9736 136.0 
47.9877 68.0 
51.0274 95.0 
59.9806 999.0 
65.0409 54.0 
77.039 150.0 
END IONS

BEGIN IONS
INCHIKEY=ATROHALUCMTWTB-WYMLVPIESA-N
INCHI=InChI=1S/C12H15N2O3PS/c1-3-15-18(19,16-4-2)17-14-12(10-13)11-8-6-5-7-9-11/h5-9H,3-4H2,1-2H3/b14-12+
SMILES=CCOP(=S)(OCC)O/N=C(\C#N)/C1=CC=CC=C1
INSTRUMENT_TYPE=LC-ESI-QTOF
INSTRUMENT=TripleTOF 6600 SCIEX
COLLISION_ENERGY=40
FORMULA=C12H15N2O3PS
PARENT=299.0614
SPLASH=splash10-004i-9000000000-091dc9d8ceaa060a3f34
NUM_PEAKS=7
COMPOUND_NAME=Phoxim
SPECTRUM_ID=MSBNK-BAFG-CSL23111017840
ADDUCT=[M+H]+
MS_LEVEL=MS2
PRECURSOR_MZ=299.0614
IONMODE=positive
NOMINAL_MASS=298
PARENT_MASS=298.0541
50.0144 10.0 
51.0223 54.0 
77.0382 999.0 
78.9391 14.0 
96.9499 378.0 
105.0434 29.0 
129.0437 48.0 
END IONS

BEGIN IONS
INCHIKEY=ATROHALUCMTWTB-WYMLVPIESA-N
INCHI=InChI=1S/C12H15N2O3PS/c1-3-15-18(19,16-4-2)17-14-12(10-13)11-8-6-5-7-9-11/h5-9H,3-4H2,1-2H3/b14-12+
SMILES=CCOP(=S)(OCC)O/N=C(\C#N)/C1=CC=CC=C1
INSTRUMENT_TYPE=LC-ESI-QTOF
INSTRUMENT=TripleTOF 6600 SCIEX
COLLISION_ENERGY=100
FORMULA=C12H15N2O3PS
PARENT=299.0614
SPLASH=splash10-0udi-9000000000-40e610cb900c9d5a5171
NUM_PEAKS=10
COMPOUND_NAME=Phoxim
SPECTRUM_ID=MSBNK-BAFG-CSL23111017838
ADDUCT=[M+H]+
MS_LEVEL=MS2
PRECURSOR_MZ=299.0614
IONMODE=positive
NOMINAL_MASS=298
PARENT_MASS=298.0541
46.9673 37.0 
49.0066 50.0 
50.0143 343.0 
51.0224 999.0 
62.9626 12.0 
64.9774 39.0 
77.0375 218.0 
78.9388 34.0 
80.9711 12.0 
96.9494 19.0 
END IONS

BEGIN IONS
INCHIKEY=YASYVMFAVPKPKE-UHFFFAOYSA-N
INCHI=InChI=1S/C4H10NO3PS/c1-4(6)5-9(7,8-2)10-3/h1-3H3,(H,5,6,7)
SMILES=CC(=O)NP(=O)(OC)SC
INSTRUMENT_TYPE=LC-ESI-QTOF
INSTRUMENT=TripleTOF 6600 SCIEX
COLLISION_ENERGY=60
FORMULA=C4H10NO3PS
PARENT=184.0192
SPLASH=splash10-0005-9000000000-d1136f91e3c26b13e48b
NUM_PEAKS=6
COMPOUND_NAME=Acephate
SPECTRUM_ID=MSBNK-BAFG-CSL23111014572
ADDUCT=[M+H]+
MS_LEVEL=MS2
PRECURSOR_MZ=184.0192
IONMODE=positive
NOMINAL_MASS=183
PARENT_MASS=183.0119
42.0327 473.0 
44.9781 841.0 
46.9663 315.0 
46.9936 999.0 
49.0091 525.0 
64.9783 315.0 
END IONS

BEGIN IONS
INCHIKEY=YFBPRJGDJKVWAH-UHFFFAOYSA-N
INCHI=InChI=1S/C11H15NO2S/c1-7-5-9(14-11(13)12-3)6-8(2)10(7)15-4/h5-6H,1-4H3,(H,12,13)
SMILES=Cc1cc(cc(c1SC)C)OC(=O)NC
INSTRUMENT_TYPE=LC-ESI-QTOF
INSTRUMENT=TripleTOF 6600 SCIEX
COLLISION_ENERGY=120
FORMULA=C11H15NO2S
PARENT=226.0896
SPLASH=splash10-0udi-9000000000-3d3779b63044134d6bf7
NUM_PEAKS=27
COMPOUND_NAME=Methiocarb
SPECTRUM_ID=MSBNK-BAFG-CSL23111027298
ADDUCT=[M+H]+
MS_LEVEL=MS2
PRECURSOR_MZ=226.0896
IONMODE=positive
NOMINAL_MASS=225
PARENT_MASS=225.0823
35.9982 31.0 
37.0053 171.0 
37.9999 26.0 
38.013 130.0 
39.0211 442.0 
41.0365 41.0 
43.9692 20.0 
44.9771 140.0 
49.005 104.0 
50.0128 608.0 
51.0206 999.0 
52.0282 36.0 
53.0353 36.0 
55.0173 26.0 
58.992 26.0 
61.0055 52.0 
62.0122 88.0 
63.0207 130.0 
65.0359 166.0 
68.9766 88.0 
74.0114 52.0 
75.0198 36.0 
77.0355 333.0 
78.0427 52.0 
89.0366 72.0 
91.0521 93.0 
92.9743 31.0 
END IONS

BEGIN IONS
INCHIKEY=QGLZXHRNAYXIBU-UHFFFAOYSA-N
INCHI=InChI=1S/C7H14N2O2S/c1-7(2,12-4)5-9-11-6(10)8-3/h5H,1-4H3,(H,8,10)
SMILES=CC(C)(C=NOC(=O)NC)SC
INSTRUMENT_TYPE=LC-ESI-QTOF
INSTRUMENT=TripleTOF 6600 SCIEX
COLLISION_ENERGY=70
FORMULA=C7H14N2O2S
PARENT=213.0668
SPLASH=splash10-0a4u-9000000000-e5b007d0480ca25724e7
NUM_PEAKS=10
COMPOUND_NAME=Aldicarb
SPECTRUM_ID=MSBNK-BAFG-CSL23111016278
ADDUCT=[M+Na]+
MS_LEVEL=MS2
PRECURSOR_MZ=213.0668
IONMODE=positive
NOMINAL_MASS=190
PARENT_MASS=190.0776
37.0078 87.0 
38.0156 87.0 
39.0235 615.0 
41.0392 371.0 
44.9798 139.0 
46.9955 156.0 
58.9955 999.0 
74.0189 98.0 
89.0425 69.0 
100.0224 92.0 
END IONS

BEGIN IONS
INCHIKEY=YFGYUFNIOHWBOB-UHFFFAOYSA-N
INCHI=InChI=1S/C11H18N4O2/c1-7-8(2)12-10(14(3)4)13-9(7)17-11(16)15(5)6/h1-6H3
SMILES=CC1=C(N=C(N=C1OC(=O)N(C)C)N(C)C)C
INSTRUMENT_TYPE=LC-ESI-QTOF
INSTRUMENT=TripleTOF 6600 SCIEX
COLLISION_ENERGY=40
FORMULA=C11H18N4O2
PARENT=239.1503
SPLASH=splash10-00di-9200000000-e9bf9af29d0d7de6d71c
NUM_PEAKS=10
COMPOUND_NAME=Pirimicarb
SPECTRUM_ID=MSBNK-BAFG-CSL23111017372
ADDUCT=[M+H]+
MS_LEVEL=MS2
PRECURSOR_MZ=239.1503
IONMODE=positive
NOMINAL_MASS=238
PARENT_MASS=238.143
72.045 999.0 
83.0239 17.0 
85.0762 86.0 
109.0761 79.0 
137.0709 32.0 
138.0789 30.0 
150.1023 17.0 
152.0816 21.0 
167.1047 11.0 
182.129 58.0 
END IONS

BEGIN IONS
INCHIKEY=YFGYUFNIOHWBOB-UHFFFAOYSA-N
INCHI=InChI=1S/C11H18N4O2/c1-7-8(2)12-10(14(3)4)13-9(7)17-11(16)15(5)6/h1-6H3
SMILES=CC1=C(N=C(N=C1OC(=O)N(C)C)N(C)C)C
INSTRUMENT_TYPE=LC-ESI-QTOF
INSTRUMENT=TripleTOF 6600 SCIEX
COLLISION_ENERGY=80
FORMULA=C11H18N4O2
PARENT=239.1503
SPLASH=splash10-00di-9000000000-63f1d5a1de1d387c5bef
NUM_PEAKS=21
COMPOUND_NAME=Pirimicarb
SPECTRUM_ID=MSBNK-BAFG-CSL23111017375
ADDUCT=[M+H]+
MS_LEVEL=MS2
PRECURSOR_MZ=239.1503
IONMODE=positive
NOMINAL_MASS=238
PARENT_MASS=238.143
42.0339 96.0 
44.049 66.0 
53.0383 30.0 
54.0336 30.0 
55.0288 33.0 
56.0129 276.0 
58.0648 27.0 
66.0328 18.0 
68.049 33.0 
69.0077 24.0 
69.0447 132.0 
69.0561 33.0 
70.0526 36.0 
71.0599 45.0 
72.0442 999.0 
83.0236 21.0 
85.0754 45.0 
93.0438 39.0 
94.0513 18.0 
95.0602 24.0 
109.0756 33.0 
END IONS

BEGIN IONS
INCHIKEY=LCCNCVORNKJIRZ-UHFFFAOYSA-N
INCHI=InChI=1S/C10H14NO5PS/c1-3-14-17(18,15-4-2)16-10-7-5-9(6-8-10)11(12)13/h5-8H,3-4H2,1-2H3
SMILES=CCOP(=S)(OCC)Oc1ccc(cc1)[N+](=O)[O-]
INSTRUMENT_TYPE=LC-ESI-QTOF
INSTRUMENT=TripleTOF 5600 SCIEX
COLLISION_ENERGY=70
FORMULA=C10H14NO5PS
PARENT=292.0403
SPLASH=splash10-00kf-9200000000-27f02e31d4a8bd00699a
NUM_PEAKS=20
COMPOUND_NAME=Parathion
SPECTRUM_ID=MSBNK-BAFG-CSL2311093069
ADDUCT=[M+H]+
MS_LEVEL=MS2
PRECURSOR_MZ=292.0403
IONMODE=positive
NOMINAL_MASS=291
PARENT_MASS=291.033
64.9897 86.0 
65.0433 246.0 
66.0501 579.0 
75.0259 376.0 
77.0408 86.0 
78.9423 115.0 
81.0389 57.0 
92.0264 130.0 
93.0365 217.0 
93.0583 72.0 
94.0421 999.0 
94.0635 101.0 
96.9508 376.0 
97.0125 173.0 
109.011 188.0 
110.0185 289.0 
121.0409 72.0 
123.0321 144.0 
125.0068 57.0 
154.9699 115.0 
END IONS

BEGIN IONS
INCHIKEY=LCCNCVORNKJIRZ-UHFFFAOYSA-N
INCHI=InChI=1S/C10H14NO5PS/c1-3-14-17(18,15-4-2)16-10-7-5-9(6-8-10)11(12)13/h5-8H,3-4H2,1-2H3
SMILES=CCOP(=S)(OCC)Oc1ccc(cc1)[N+](=O)[O-]
INSTRUMENT_TYPE=LC-ESI-QTOF
INSTRUMENT=TripleTOF 5600 SCIEX
COLLISION_ENERGY=150
FORMULA=C10H14NO5PS
PARENT=292.0403
SPLASH=splash10-00di-9000000000-9b30e1800f7b28065dd8
NUM_PEAKS=4
COMPOUND_NAME=Parathion
SPECTRUM_ID=MSBNK-BAFG-CSL2311093076
ADDUCT=[M+H]+
MS_LEVEL=MS2
PRECURSOR_MZ=292.0403
IONMODE=positive
NOMINAL_MASS=291
PARENT_MASS=291.033
64.9843 230.0 
65.0411 268.0 
74.017 999.0 
75.0245 384.0 
END IONS

BEGIN IONS
INCHIKEY=LCCNCVORNKJIRZ-UHFFFAOYSA-N
INCHI=InChI=1S/C10H14NO5PS/c1-3-14-17(18,15-4-2)16-10-7-5-9(6-8-10)11(12)13/h5-8H,3-4H2,1-2H3
SMILES=CCOP(=S)(OCC)Oc1ccc(cc1)[N+](=O)[O-]
INSTRUMENT_TYPE=LC-ESI-QTOF
INSTRUMENT=TripleTOF 5600 SCIEX
COLLISION_ENERGY=30
FORMULA=C10H14NO5PS
PARENT=292.0403
SPLASH=splash10-000i-1790000000-b0ddda88f0b6c1aa08f4
NUM_PEAKS=17
COMPOUND_NAME=Parathion
SPECTRUM_ID=MSBNK-BAFG-CSL2311093073
ADDUCT=[M+H]+
MS_LEVEL=MS2
PRECURSOR_MZ=292.0403
IONMODE=positive
NOMINAL_MASS=291
PARENT_MASS=291.033
93.0607 18.0 
94.0422 129.0 
96.9513 107.0 
109.0255 15.0 
110.0183 119.0 
123.0312 153.0 
125.0055 12.0 
139.0102 15.0 
140.0335 236.0 
156.0096 202.0 
171.9737 36.0 
187.9732 15.0 
189.984 218.0 
201.9874 30.0 
217.9667 212.0 
218.9713 64.0 
235.9777 999.0 
END IONS

BEGIN IONS
INCHIKEY=FHIVAFMUCKRCQO-UHFFFAOYSA-N
INCHI=InChI=1S/C12H21N2O3PS/c1-6-15-18(19,16-7-2)17-11-8-10(5)13-12(14-11)9(3)4/h8-9H,6-7H2,1-5H3
SMILES=CCO[P](=S)(OCC)Oc1cc(C)nc(n1)C(C)C
INSTRUMENT_TYPE=LC-ESI-QTOF
INSTRUMENT=TripleTOF 5600 SCIEX
COLLISION_ENERGY=90
FORMULA=C12H21N2O3PS
PARENT=305.1083
SPLASH=splash10-0002-9000000000-e386aa00be25df054fb5
NUM_PEAKS=19
COMPOUND_NAME=Diazinon
SPECTRUM_ID=MSBNK-BAFG-CSL2311094549
ADDUCT=[M+H]+
MS_LEVEL=MS2
PRECURSOR_MZ=305.1083
IONMODE=positive
NOMINAL_MASS=304
PARENT_MASS=304.1011
42.0436 117.0 
54.0394 12.0 
59.0007 44.0 
59.9954 36.0 
62.9679 61.0 
64.9842 288.0 
66.0381 10.0 
67.046 71.0 
70.0687 39.0 
78.944 385.0 
80.9766 180.0 
82.9973 65.0 
84.0465 71.0 
90.9955 24.0 
96.9532 999.0 
99.0141 10.0 
100.0228 109.0 
137.0703 12.0 
153.0484 38.0 
END IONS

BEGIN IONS
INCHIKEY=SBPBAQFWLVIOKP-UHFFFAOYSA-N
INCHI=InChI=1S/C9H11Cl3NO3PS/c1-3-14-17(18,15-4-2)16-9-7(11)5-6(10)8(12)13-9/h5H,3-4H2,1-2H3
SMILES=CCO[P](=S)(OCC)Oc1nc(Cl)c(Cl)cc1Cl
INSTRUMENT_TYPE=LC-ESI-QTOF
INSTRUMENT=TripleTOF 5600 SCIEX
COLLISION_ENERGY=30
FORMULA=C9H11Cl3NO3PS
PARENT=349.9336
SPLASH=splash10-0002-2910000000-a94e9c49df3be3f4fc16
NUM_PEAKS=8
COMPOUND_NAME=Chlorpyrifos
SPECTRUM_ID=MSBNK-BAFG-CSL2311107140
ADDUCT=[M+H]+
MS_LEVEL=MS2
PRECURSOR_MZ=349.9336
IONMODE=positive
NOMINAL_MASS=349
PARENT_MASS=348.9263
96.9513 367.0 
124.9816 269.0 
153.0124 66.0 
197.9265 999.0 
213.9027 91.0 
275.8579 47.0 
293.8695 140.0 
321.8992 13.0 
END IONS

BEGIN IONS
INCHIKEY=DUEPRVBVGDRKAG-UHFFFAOYSA-N
INCHI=InChI=1S/C12H15NO3/c1-12(2)7-8-5-4-6-9(10(8)16-12)15-11(14)13-3/h4-6H,7H2,1-3H3,(H,13,14)
SMILES=CNC(=O)Oc1cccc2CC(C)(C)Oc12
INSTRUMENT_TYPE=LC-ESI-QTOF
INSTRUMENT=TripleTOF 5600 SCIEX
COLLISION_ENERGY=120
FORMULA=C12H15NO3
PARENT=222.1125
SPLASH=splash10-004i-9000000000-984224f7a360a24c590a
NUM_PEAKS=16
COMPOUND_NAME=Carbofuran
SPECTRUM_ID=MSBNK-BAFG-CSL2311095462
ADDUCT=[M+H]+
MS_LEVEL=MS2
PRECURSOR_MZ=222.1125
IONMODE=positive
NOMINAL_MASS=221
PARENT_MASS=221.1052
53.0447 45.0 
55.0228 36.0 
55.0596 81.0 
58.0328 608.0 
63.048 45.0 
65.0427 399.0 
74.0182 245.0 
75.0263 99.0 
76.0329 45.0 
77.041 999.0 
77.0671 45.0 
78.0487 136.0 
89.0405 54.0 
91.0555 72.0 
91.0713 45.0 
102.0472 45.0 
END IONS

BEGIN IONS
INCHIKEY=CVXBEEMKQHEXEN-UHFFFAOYSA-N
INCHI=InChI=1S/C12H11NO2/c1-13-12(14)15-11-8-4-6-9-5-2-3-7-10(9)11/h2-8H,1H3,(H,13,14)
SMILES=CNC(=O)Oc1cccc2ccccc12
INSTRUMENT_TYPE=LC-ESI-QTOF
INSTRUMENT=TripleTOF 5600 SCIEX
COLLISION_ENERGY=40
FORMULA=C12H11NO2
PARENT=202.0863
SPLASH=splash10-00or-1900000000-7da0da7a708631e0e681
NUM_PEAKS=13
COMPOUND_NAME=Carbaryl
SPECTRUM_ID=MSBNK-BAFG-CSL2311095486
ADDUCT=[M+H]+
MS_LEVEL=MS2
PRECURSOR_MZ=202.0863
IONMODE=positive
NOMINAL_MASS=201
PARENT_MASS=201.079
58.0351 11.0 
65.0425 14.0 
77.0408 86.0 
91.0552 163.0 
101.0386 25.0 
115.0539 325.0 
116.0604 18.0 
117.0694 297.0 
126.0458 50.0 
127.0543 999.0 
144.0556 16.0 
145.0644 393.0 
155.0594 55.0 
END IONS

BEGIN IONS
INCHIKEY=OEBRKCOSUFCWJD-UHFFFAOYSA-N
INCHI=InChI=1S/C4H7Cl2O4P/c1-8-11(7,9-2)10-3-4(5)6/h3H,1-2H3
SMILES=CO[P](=O)(OC)OC=C(Cl)Cl
INSTRUMENT_TYPE=LC-ESI-QTOF
INSTRUMENT=TripleTOF 5600 SCIEX
COLLISION_ENERGY=60
FORMULA=C4H7Cl2O4P
PARENT=220.9532
SPLASH=splash10-054o-9200000000-9129c0f4b6e8e508ebd0
NUM_PEAKS=18
COMPOUND_NAME=Dichlorvos
SPECTRUM_ID=MSBNK-BAFG-CSL2311096049
ADDUCT=[M+H]+
MS_LEVEL=MS2
PRECURSOR_MZ=220.9532
IONMODE=positive
NOMINAL_MASS=220
PARENT_MASS=219.9459
43.0248 48.0 
55.0605 243.0 
59.9812 670.0 
65.0413 207.0 
77.0404 645.0 
78.9962 584.0 
79.0153 60.0 
79.0563 328.0 
91.0558 743.0 
94.9458 999.0 
94.9907 353.0 
96.9598 85.0 
103.0539 109.0 
107.0506 73.0 
109.0052 730.0 
111.9485 121.0 
115.0533 134.0 
127.0155 48.0 
END IONS

BEGIN IONS
INCHIKEY=JXSJBGJIGXNWCI-UHFFFAOYSA-N
INCHI=InChI=1S/C10H19O6PS2/c1-5-15-9(11)7-8(10(12)16-6-2)19-17(18,13-3)14-4/h8H,5-7H2,1-4H3
SMILES=CCOC(=O)CC(C(=O)OCC)SP(=S)(OC)OC
INSTRUMENT_TYPE=LC-ESI-QTOF
INSTRUMENT=TripleTOF 5600 SCIEX
COLLISION_ENERGY=110
FORMULA=C10H19O6PS2
PARENT=331.0433
SPLASH=splash10-0005-9000000000-61b6f09965c7005889ec
NUM_PEAKS=8
COMPOUND_NAME=Malathion
SPECTRUM_ID=MSBNK-BAFG-CSL23111010789
ADDUCT=[M+H]+
MS_LEVEL=MS2
PRECURSOR_MZ=331.0433
IONMODE=positive
NOMINAL_MASS=330
PARENT_MASS=330.0361
44.9793 936.0 
46.9685 499.0 
46.9949 999.0 
71.0133 499.0 
78.9936 561.0 
93.0106 249.0 
99.0063 561.0 
124.9851 374.0 
END IONS

BEGIN IONS
INCHIKEY=CVXBEEMKQHEXEN-UHFFFAOYSA-N
INCHI=InChI=1S/C12H11NO2/c1-13-12(14)15-11-8-4-6-9-5-2-3-7-10(9)11/h2-8H,1H3,(H,13,14)
SMILES=CNC(=O)Oc1cccc2ccccc12
INSTRUMENT_TYPE=LC-ESI-QTOF
INSTRUMENT=TripleTOF 5600 SCIEX
COLLISION_ENERGY=30
FORMULA=C12H11NO2
PARENT=202.0863
SPLASH=splash10-002b-0900000000-2067dc81e0280d39ad9a
NUM_PEAKS=6
COMPOUND_NAME=Carbaryl
SPECTRUM_ID=MSBNK-BAFG-CSL2311095481
ADDUCT=[M+H]+
MS_LEVEL=MS2
PRECURSOR_MZ=202.0863
IONMODE=positive
NOMINAL_MASS=201
PARENT_MASS=201.079
91.055 26.0 
115.0534 75.0 
117.0691 378.0 
127.0542 612.0 
145.0644 999.0 
155.0589 53.0 
END IONS

BEGIN IONS
INCHIKEY=DUEPRVBVGDRKAG-UHFFFAOYSA-N
INCHI=InChI=1S/C12H15NO3/c1-12(2)7-8-5-4-6-9(10(8)16-12)15-11(14)13-3/h4-6H,7H2,1-3H3,(H,13,14)
SMILES=CNC(=O)Oc1cccc2CC(C)(C)Oc12
INSTRUMENT_TYPE=LC-ESI-QTOF
INSTRUMENT=TripleTOF 5600 SCIEX
COLLISION_ENERGY=20
FORMULA=C12H15NO3
PARENT=222.1125
SPLASH=splash10-01b9-0900000000-d8907052f9844ff48632
NUM_PEAKS=7
COMPOUND_NAME=Carbofuran
SPECTRUM_ID=MSBNK-BAFG-CSL2311095469
ADDUCT=[M+H]+
MS_LEVEL=MS2
PRECURSOR_MZ=222.1125
IONMODE=positive
NOMINAL_MASS=221
PARENT_MASS=221.1052
55.0592 13.0 
119.0854 23.0 
123.0448 609.0 
137.0598 50.0 
147.0805 24.0 
165.0912 999.0 
222.112 92.0 
END IONS

BEGIN IONS
INCHIKEY=DUEPRVBVGDRKAG-UHFFFAOYSA-N
INCHI=InChI=1S/C12H15NO3/c1-12(2)7-8-5-4-6-9(10(8)16-12)15-11(14)13-3/h4-6H,7H2,1-3H3,(H,13,14)
SMILES=CNC(=O)Oc1cccc2CC(C)(C)Oc12
INSTRUMENT_TYPE=LC-ESI-QTOF
INSTRUMENT=TripleTOF 5600 SCIEX
COLLISION_ENERGY=110
FORMULA=C12H15NO3
PARENT=222.1125
SPLASH=splash10-056r-9000000000-330612e40af0b2ed84a2
NUM_PEAKS=19
COMPOUND_NAME=Carbofuran
SPECTRUM_ID=MSBNK-BAFG-CSL2311095458
ADDUCT=[M+H]+
MS_LEVEL=MS2
PRECURSOR_MZ=222.1125
IONMODE=positive
NOMINAL_MASS=221
PARENT_MASS=221.1052
52.0364 42.0 
53.0444 31.0 
55.0239 31.0 
55.0578 52.0 
58.0339 499.0 
64.0341 36.0 
65.0419 394.0 
74.0176 120.0 
75.0258 78.0 
76.0339 21.0 
77.0418 999.0 
78.0492 84.0 
78.0613 21.0 
89.0396 78.0 
91.0549 99.0 
102.0485 52.0 
103.0542 73.0 
115.0517 31.0 
131.0472 26.0 
END IONS

BEGIN IONS
INCHIKEY=YFBPRJGDJKVWAH-UHFFFAOYSA-N
INCHI=InChI=1S/C11H15NO2S/c1-7-5-9(14-11(13)12-3)6-8(2)10(7)15-4/h5-6H,1-4H3,(H,12,13)
SMILES=Cc1cc(cc(c1SC)C)OC(=O)NC
INSTRUMENT_TYPE=LC-ESI-QTOF
INSTRUMENT=TripleTOF 6600 SCIEX
COLLISION_ENERGY=90
FORMULA=C11H15NO2S
PARENT=226.0896
SPLASH=splash10-0fb9-9000000000-bea82c10ebd1e45e657d
NUM_PEAKS=31
COMPOUND_NAME=Methiocarb
SPECTRUM_ID=MSBNK-BAFG-CSL23111027295
ADDUCT=[M+H]+
MS_LEVEL=MS2
PRECURSOR_MZ=226.0896
IONMODE=positive
NOMINAL_MASS=225
PARENT_MASS=225.0823
37.0058 41.0 
38.0129 28.0 
39.0206 165.0 
41.0361 34.0 
44.9772 54.0 
49.0046 19.0 
50.0128 175.0 
51.0207 668.0 
52.028 26.0 
53.0366 60.0 
55.0158 28.0 
61.0063 10.0 
62.0124 15.0 
63.0204 39.0 
65.0363 206.0 
67.0534 19.0 
68.9758 19.0 
74.0129 13.0 
77.0358 999.0 
78.0443 106.0 
79.0519 78.0 
81.032 23.0 
89.0364 21.0 
91.0514 217.0 
103.0514 30.0 
105.0411 23.0 
107.0463 106.0 
121.0095 10.0 
121.0623 26.0 
134.0147 23.0 
135.0232 13.0 
END IONS

BEGIN IONS
INCHIKEY=SBPBAQFWLVIOKP-UHFFFAOYSA-N
INCHI=InChI=1S/C9H11Cl3NO3PS/c1-3-14-17(18,15-4-2)16-9-7(11)5-6(10)8(12)13-9/h5H,3-4H2,1-2H3
SMILES=CCO[P](=S)(OCC)Oc1nc(Cl)c(Cl)cc1Cl
INSTRUMENT_TYPE=LC-ESI-QTOF
INSTRUMENT=TripleTOF 5600 SCIEX
COLLISION_ENERGY=130
FORMULA=C9H11Cl3NO3PS
PARENT=349.9336
SPLASH=splash10-0a4i-9800000000-510e7ac9bc932478fc9d
NUM_PEAKS=17
COMPOUND_NAME=Chlorpyrifos
SPECTRUM_ID=MSBNK-BAFG-CSL2311107139
ADDUCT=[M+H]+
MS_LEVEL=MS2
PRECURSOR_MZ=349.9336
IONMODE=positive
NOMINAL_MASS=349
PARENT_MASS=348.9263
61.9836 45.0 
64.9823 342.0 
70.9708 22.0 
71.9786 173.0 
74.0053 22.0 
75.0128 50.0 
78.9425 451.0 
82.9477 36.0 
83.9777 159.0 
96.9521 510.0 
106.9453 999.0 
106.9842 27.0 
108.9712 492.0 
109.9791 59.0 
117.9361 41.0 
118.9434 54.0 
143.9385 31.0 
END IONS

BEGIN IONS
INCHIKEY=YFGYUFNIOHWBOB-UHFFFAOYSA-N
INCHI=InChI=1S/C11H18N4O2/c1-7-8(2)12-10(14(3)4)13-9(7)17-11(16)15(5)6/h1-6H3
SMILES=CC1=C(N=C(N=C1OC(=O)N(C)C)N(C)C)C
INSTRUMENT_TYPE=LC-ESI-QTOF
INSTRUMENT=TripleTOF 6600 SCIEX
COLLISION_ENERGY=40
FORMULA=C11H18N4O2
PARENT=239.1503
SPLASH=splash10-00di-9200000000-4895d850344d444433ce
NUM_PEAKS=11
COMPOUND_NAME=Pirimicarb
SPECTRUM_ID=MSBNK-BAFG-CSL23111017366
ADDUCT=[M+H]+
MS_LEVEL=MS2
PRECURSOR_MZ=239.1503
IONMODE=positive
NOMINAL_MASS=238
PARENT_MASS=238.143
56.0127 11.0 
72.0448 999.0 
83.0232 17.0 
85.0758 77.0 
109.0756 70.0 
137.0703 34.0 
138.0782 24.0 
150.102 18.0 
152.0811 17.0 
167.1043 11.0 
182.1288 124.0 
END IONS

BEGIN IONS
INCHIKEY=FHIVAFMUCKRCQO-UHFFFAOYSA-N
INCHI=InChI=1S/C12H21N2O3PS/c1-6-15-18(19,16-7-2)17-11-8-10(5)13-12(14-11)9(3)4/h8-9H,6-7H2,1-5H3
SMILES=CCO[P](=S)(OCC)Oc1cc(C)nc(n1)C(C)C
INSTRUMENT_TYPE=LC-ESI-QTOF
INSTRUMENT=TripleTOF 5600 SCIEX
COLLISION_ENERGY=140
FORMULA=C12H21N2O3PS
PARENT=305.1083
SPLASH=splash10-03fs-9000000000-5ef6bf378cbe07d60f37
NUM_PEAKS=25
COMPOUND_NAME=Diazinon
SPECTRUM_ID=MSBNK-BAFG-CSL2311094548
ADDUCT=[M+H]+
MS_LEVEL=MS2
PRECURSOR_MZ=305.1083
IONMODE=positive
NOMINAL_MASS=304
PARENT_MASS=304.1011
37.0174 22.0 
42.043 280.0 
44.0213 10.0 
46.977 752.0 
47.0127 14.0 
54.0406 54.0 
56.9853 14.0 
57.9915 68.0 
58.9995 58.0 
59.9942 82.0 
62.9493 15.0 
62.9682 452.0 
62.9928 12.0 
64.9839 999.0 
65.045 12.0 
66.0364 10.0 
67.0459 29.0 
68.0164 12.0 
70.998 14.0 
78.9437 984.0 
80.0533 10.0 
80.9754 199.0 
82.9965 58.0 
83.9913 10.0 
96.952 530.0 
END IONS

BEGIN IONS
INCHIKEY=RLBIQVVOMOPOHC-UHFFFAOYSA-N
INCHI=InChI=1S/C8H10NO5PS/c1-12-15(16,13-2)14-8-5-3-7(4-6-8)9(10)11/h3-6H,1-2H3
SMILES=COP(=S)(OC)OC1=CC=C(C=C1)[N+](=O)[O-]
INSTRUMENT_TYPE=LC-ESI-QTOF
INSTRUMENT=TripleTOF 6600 SCIEX
COLLISION_ENERGY=50
FORMULA=C8H10NO5PS
PARENT=264.009
SPLASH=splash10-0fb9-9600000000-ca80082d317442cf1ad7
NUM_PEAKS=37
COMPOUND_NAME=Parathion-methyl
SPECTRUM_ID=MSBNK-BAFG-CSL23111018877
ADDUCT=[M+H]+
MS_LEVEL=MS2
PRECURSOR_MZ=264.009
IONMODE=positive
NOMINAL_MASS=263
PARENT_MASS=263.0017
44.9788 163.0 
46.9666 93.0 
46.994 421.0 
62.0181 124.0 
62.9441 70.0 
63.0214 179.0 
64.0295 117.0 
65.0367 54.0 
69.9855 54.0 
74.0135 140.0 
75.0215 866.0 
76.0303 85.0 
77.0378 62.0 
78.9934 999.0 
91.0523 39.0 
92.0238 288.0 
93.0095 78.0 
93.031 54.0 
94.9924 54.0 
95.9998 156.0 
108.0003 187.0 
109.003 374.0 
123.0287 39.0 
123.9964 54.0 
124.9788 585.0 
125.0132 31.0 
125.9669 46.0 
126.9764 46.0 
139.0202 85.0 
141.962 54.0 
150.0256 70.0 
153.9622 413.0 
154.9684 694.0 
170.9635 70.0 
184.984 132.0 
185.9892 46.0 
199.9532 46.0 
END IONS

BEGIN IONS
INCHIKEY=FHIVAFMUCKRCQO-UHFFFAOYSA-N
INCHI=InChI=1S/C12H21N2O3PS/c1-6-15-18(19,16-7-2)17-11-8-10(5)13-12(14-11)9(3)4/h8-9H,6-7H2,1-5H3
SMILES=CCO[P](=S)(OCC)Oc1cc(C)nc(n1)C(C)C
INSTRUMENT_TYPE=LC-ESI-QTOF
INSTRUMENT=TripleTOF 5600 SCIEX
COLLISION_ENERGY=120
FORMULA=C12H21N2O3PS
PARENT=305.1083
SPLASH=splash10-03fs-9000000000-564e4867374e797cc99f
NUM_PEAKS=22
COMPOUND_NAME=Diazinon
SPECTRUM_ID=MSBNK-BAFG-CSL2311094551
ADDUCT=[M+H]+
MS_LEVEL=MS2
PRECURSOR_MZ=305.1083
IONMODE=positive
NOMINAL_MASS=304
PARENT_MASS=304.1011
42.0432 268.0 
54.0397 54.0 
57.9917 33.0 
59.0001 55.0 
59.9953 54.0 
60.0068 22.0 
62.951 11.0 
62.9679 286.0 
64.9843 936.0 
65.0179 12.0 
66.0383 12.0 
67.0456 62.0 
71.0001 9.0 
78.9439 999.0 
80.0514 13.0 
80.9768 267.0 
82.9973 78.0 
84.0469 28.0 
90.9972 12.0 
94.0651 14.0 
96.9524 994.0 
100.0223 29.0 
END IONS

BEGIN IONS
INCHIKEY=OEBRKCOSUFCWJD-UHFFFAOYSA-N
INCHI=InChI=1S/C4H7Cl2O4P/c1-8-11(7,9-2)10-3-4(5)6/h3H,1-2H3
SMILES=CO[P](=O)(OC)OC=C(Cl)Cl
INSTRUMENT_TYPE=LC-ESI-QTOF
INSTRUMENT=TripleTOF 5600 SCIEX
COLLISION_ENERGY=40
FORMULA=C4H7Cl2O4P
PARENT=220.9532
SPLASH=splash10-0a6r-8900000000-6715a26bc22e62e88126
NUM_PEAKS=19
COMPOUND_NAME=Dichlorvos
SPECTRUM_ID=MSBNK-BAFG-CSL2311096053
ADDUCT=[M+H]+
MS_LEVEL=MS2
PRECURSOR_MZ=220.9532
IONMODE=positive
NOMINAL_MASS=220
PARENT_MASS=219.9459
46.9739 11.0 
55.0598 74.0 
59.9795 30.0 
65.0418 16.0 
77.0409 69.0 
78.9964 386.0 
79.0566 90.0 
91.0555 157.0 
92.974 13.0 
94.9453 201.0 
94.9889 90.0 
96.9615 53.0 
103.0537 18.0 
107.0481 11.0 
109.0046 999.0 
111.9486 16.0 
112.9553 30.0 
123.0425 11.0 
127.0143 150.0 
END IONS

BEGIN IONS
INCHIKEY=LCCNCVORNKJIRZ-UHFFFAOYSA-N
INCHI=InChI=1S/C10H14NO5PS/c1-3-14-17(18,15-4-2)16-10-7-5-9(6-8-10)11(12)13/h5-8H,3-4H2,1-2H3
SMILES=CCOP(=S)(OCC)Oc1ccc(cc1)[N+](=O)[O-]
INSTRUMENT_TYPE=LC-ESI-QTOF
INSTRUMENT=TripleTOF 5600 SCIEX
COLLISION_ENERGY=120
FORMULA=C10H14NO5PS
PARENT=292.0403
SPLASH=splash10-0100-9000000000-fad61a0047d0b983e23f
NUM_PEAKS=4
COMPOUND_NAME=Parathion
SPECTRUM_ID=MSBNK-BAFG-CSL2311093067
ADDUCT=[M+H]+
MS_LEVEL=MS2
PRECURSOR_MZ=292.0403
IONMODE=positive
NOMINAL_MASS=291
PARENT_MASS=291.033
65.0423 666.0 
74.0176 999.0 
75.0252 399.0 
78.9421 266.0 
END IONS

BEGIN IONS
INCHIKEY=NFACJZMKEDPNKN-UHFFFAOYSA-N
INCHI=InChI=1S/C4H8Cl3O4P/c1-10-12(9,11-2)3(8)4(5,6)7/h3,8H,1-2H3
SMILES=COP(=O)(C(C(Cl)(Cl)Cl)O)OC
INSTRUMENT_TYPE=LC-ESI-QTOF
INSTRUMENT=TripleTOF 6600 SCIEX
COLLISION_ENERGY=70
FORMULA=C4H8Cl3O4P
PARENT=256.9299
SPLASH=splash10-001j-9000000000-dc52912e49207d14b6f5
NUM_PEAKS=7
COMPOUND_NAME=Trichlorfon
SPECTRUM_ID=MSBNK-BAFG-CSL23111014341
ADDUCT=[M+H]+
MS_LEVEL=MS2
PRECURSOR_MZ=256.9299
IONMODE=positive
NOMINAL_MASS=256
PARENT_MASS=255.9226
46.9672 506.0 
47.9757 28.0 
48.9829 57.0 
62.9983 101.0 
78.9934 340.0 
82.9436 999.0 
109.0037 57.0 
END IONS

BEGIN IONS
INCHIKEY=OEBRKCOSUFCWJD-UHFFFAOYSA-N
INCHI=InChI=1S/C4H7Cl2O4P/c1-8-11(7,9-2)10-3-4(5)6/h3H,1-2H3
SMILES=CO[P](=O)(OC)OC=C(Cl)Cl
INSTRUMENT_TYPE=LC-ESI-QTOF
INSTRUMENT=TripleTOF 5600 SCIEX
COLLISION_ENERGY=50
FORMULA=C4H7Cl2O4P
PARENT=220.9532
SPLASH=splash10-054o-9300000000-8cbd0a53ed759536728b
NUM_PEAKS=21
COMPOUND_NAME=Dichlorvos
SPECTRUM_ID=MSBNK-BAFG-CSL2311096055
ADDUCT=[M+H]+
MS_LEVEL=MS2
PRECURSOR_MZ=220.9532
IONMODE=positive
NOMINAL_MASS=220
PARENT_MASS=219.9459
55.0601 199.0 
59.9798 241.0 
59.9992 27.0 
65.0424 124.0 
77.0404 372.0 
78.9964 668.0 
79.0565 213.0 
91.0553 585.0 
92.9731 41.0 
94.946 633.0 
94.9897 234.0 
95.0503 34.0 
96.9607 96.0 
103.0536 62.0 
107.0481 34.0 
109.0046 999.0 
111.9475 55.0 
112.9571 62.0 
115.0519 41.0 
123.0431 34.0 
127.0143 165.0 
END IONS

BEGIN IONS
INCHIKEY=CVXBEEMKQHEXEN-UHFFFAOYSA-N
INCHI=InChI=1S/C12H11NO2/c1-13-12(14)15-11-8-4-6-9-5-2-3-7-10(9)11/h2-8H,1H3,(H,13,14)
SMILES=CNC(=O)Oc1cccc2ccccc12
INSTRUMENT_TYPE=LC-ESI-QTOF
INSTRUMENT=TripleTOF 5600 SCIEX
COLLISION_ENERGY=130
FORMULA=C12H11NO2
PARENT=202.0863
SPLASH=splash10-00di-9000000000-f9cdcd80eb6e58617c39
NUM_PEAKS=10
COMPOUND_NAME=Carbaryl
SPECTRUM_ID=MSBNK-BAFG-CSL2311095484
ADDUCT=[M+H]+
MS_LEVEL=MS2
PRECURSOR_MZ=202.0863
IONMODE=positive
NOMINAL_MASS=201
PARENT_MASS=201.079
51.0284 350.0 
63.0482 29.0 
73.0093 175.0 
74.0179 999.0 
75.0258 167.0 
85.0089 116.0 
86.0168 116.0 
89.039 58.0 
97.0068 36.0 
98.0143 109.0 
END IONS

BEGIN IONS
INCHIKEY=FHIVAFMUCKRCQO-UHFFFAOYSA-N
INCHI=InChI=1S/C12H21N2O3PS/c1-6-15-18(19,16-7-2)17-11-8-10(5)13-12(14-11)9(3)4/h8-9H,6-7H2,1-5H3
SMILES=CCO[P](=S)(OCC)Oc1cc(C)nc(n1)C(C)C
INSTRUMENT_TYPE=LC-ESI-QTOF
INSTRUMENT=TripleTOF 5600 SCIEX
COLLISION_ENERGY=50
FORMULA=C12H21N2O3PS
PARENT=305.1083
SPLASH=splash10-0uxs-6900000000-3f77835b01f588cb3a55
NUM_PEAKS=20
COMPOUND_NAME=Diazinon
SPECTRUM_ID=MSBNK-BAFG-CSL2311094545
ADDUCT=[M+H]+
MS_LEVEL=MS2
PRECURSOR_MZ=305.1083
IONMODE=positive
NOMINAL_MASS=304
PARENT_MASS=304.1011
42.0436 27.0 
58.9999 16.0 
64.9827 24.0 
67.0457 30.0 
70.0697 145.0 
78.943 44.0 
80.9761 73.0 
82.9968 10.0 
84.0478 309.0 
90.996 30.0 
93.0463 15.0 
96.9529 965.0 
100.0232 708.0 
109.0046 20.0 
124.9815 27.0 
135.0909 14.0 
153.0481 14.0 
153.1028 415.0 
154.0558 30.0 
169.0799 999.0 
END IONS

BEGIN IONS
INCHIKEY=YFBPRJGDJKVWAH-UHFFFAOYSA-N
INCHI=InChI=1S/C11H15NO2S/c1-7-5-9(14-11(13)12-3)6-8(2)10(7)15-4/h5-6H,1-4H3,(H,12,13)
SMILES=Cc1cc(cc(c1SC)C)OC(=O)NC
INSTRUMENT_TYPE=LC-ESI-QTOF
INSTRUMENT=TripleTOF 6600 SCIEX
COLLISION_ENERGY=70
FORMULA=C11H15NO2S
PARENT=226.0896
SPLASH=splash10-004i-9200000000-fed2f2d2ab8f1009ee23
NUM_PEAKS=21
COMPOUND_NAME=Methiocarb
SPECTRUM_ID=MSBNK-BAFG-CSL23111027293
ADDUCT=[M+H]+
MS_LEVEL=MS2
PRECURSOR_MZ=226.0896
IONMODE=positive
NOMINAL_MASS=225
PARENT_MASS=225.0823
39.0207 49.0 
41.0363 18.0 
44.9778 21.0 
50.0121 22.0 
51.0207 223.0 
53.0362 30.0 
55.0151 12.0 
58.0263 10.0 
65.036 100.0 
67.0512 12.0 
77.036 999.0 
78.0434 87.0 
79.0514 148.0 
91.0515 301.0 
93.0666 21.0 
103.0513 50.0 
105.0419 22.0 
107.0462 394.0 
111.0232 22.0 
121.0621 129.0 
135.0238 16.0 
END IONS

BEGIN IONS
INCHIKEY=OEBRKCOSUFCWJD-UHFFFAOYSA-N
INCHI=InChI=1S/C4H7Cl2O4P/c1-8-11(7,9-2)10-3-4(5)6/h3H,1-2H3
SMILES=CO[P](=O)(OC)OC=C(Cl)Cl
INSTRUMENT_TYPE=LC-ESI-QTOF
INSTRUMENT=TripleTOF 5600 SCIEX
COLLISION_ENERGY=20
FORMULA=C4H7Cl2O4P
PARENT=220.9532
SPLASH=splash10-0ab9-0950000000-f22b3d8193f2d303f0fe
NUM_PEAKS=5
COMPOUND_NAME=Dichlorvos
SPECTRUM_ID=MSBNK-BAFG-CSL2311096052
ADDUCT=[M+H]+
MS_LEVEL=MS2
PRECURSOR_MZ=220.9532
IONMODE=positive
NOMINAL_MASS=220
PARENT_MASS=219.9459
78.9971 33.0 
109.0055 999.0 
127.0151 50.0 
144.9808 89.0 
220.9532 704.0 
END IONS

BEGIN IONS
INCHIKEY=QGLZXHRNAYXIBU-UHFFFAOYSA-N
INCHI=InChI=1S/C7H14N2O2S/c1-7(2,12-4)5-9-11-6(10)8-3/h5H,1-4H3,(H,8,10)
SMILES=CC(C)(C=NOC(=O)NC)SC
INSTRUMENT_TYPE=LC-ESI-QTOF
INSTRUMENT=TripleTOF 6600 SCIEX
COLLISION_ENERGY=90
FORMULA=C7H14N2O2S
PARENT=213.0668
SPLASH=splash10-0a4i-9000000000-a2fae2db3b6ecc9724d7
NUM_PEAKS=8
COMPOUND_NAME=Aldicarb
SPECTRUM_ID=MSBNK-BAFG-CSL23111016268
ADDUCT=[M+Na]+
MS_LEVEL=MS2
PRECURSOR_MZ=213.0668
IONMODE=positive
NOMINAL_MASS=190
PARENT_MASS=190.0776
37.0078 76.0 
38.0152 60.0 
39.0235 305.0 
41.0392 87.0 
44.9796 125.0 
46.9956 87.0 
57.9875 92.0 
58.9955 999.0 
END IONS

BEGIN IONS
INCHIKEY=SBPBAQFWLVIOKP-UHFFFAOYSA-N
INCHI=InChI=1S/C9H11Cl3NO3PS/c1-3-14-17(18,15-4-2)16-9-7(11)5-6(10)8(12)13-9/h5H,3-4H2,1-2H3
SMILES=CCO[P](=S)(OCC)Oc1nc(Cl)c(Cl)cc1Cl
INSTRUMENT_TYPE=LC-ESI-QTOF
INSTRUMENT=TripleTOF 5600 SCIEX
COLLISION_ENERGY=140
FORMULA=C9H11Cl3NO3PS
PARENT=349.9336
SPLASH=splash10-0a4i-9600000000-e497166f09ba35cb01ca
NUM_PEAKS=19
COMPOUND_NAME=Chlorpyrifos
SPECTRUM_ID=MSBNK-BAFG-CSL2311107147
ADDUCT=[M+H]+
MS_LEVEL=MS2
PRECURSOR_MZ=349.9336
IONMODE=positive
NOMINAL_MASS=349
PARENT_MASS=348.9263
61.983 78.0 
64.9836 555.0 
70.9714 52.0 
71.9794 352.0 
72.9885 39.0 
74.0057 52.0 
75.0149 78.0 
78.9429 509.0 
78.9673 32.0 
82.9499 26.0 
83.9789 163.0 
96.952 489.0 
96.9761 32.0 
106.9453 999.0 
106.9802 26.0 
108.9718 561.0 
109.9788 91.0 
118.9461 26.0 
143.9443 32.0 
END IONS

BEGIN IONS
INCHIKEY=DUEPRVBVGDRKAG-UHFFFAOYSA-N
INCHI=InChI=1S/C12H15NO3/c1-12(2)7-8-5-4-6-9(10(8)16-12)15-11(14)13-3/h4-6H,7H2,1-3H3,(H,13,14)
SMILES=CNC(=O)Oc1cccc2CC(C)(C)Oc12
INSTRUMENT_TYPE=LC-ESI-QTOF
INSTRUMENT=TripleTOF 5600 SCIEX
COLLISION_ENERGY=40
FORMULA=C12H15NO3
PARENT=222.1125
SPLASH=splash10-00di-3900000000-624debeb1c81e619a808
NUM_PEAKS=15
COMPOUND_NAME=Carbofuran
SPECTRUM_ID=MSBNK-BAFG-CSL2311095467
ADDUCT=[M+H]+
MS_LEVEL=MS2
PRECURSOR_MZ=222.1125
IONMODE=positive
NOMINAL_MASS=221
PARENT_MASS=221.1052
55.0597 54.0 
58.0335 20.0 
65.0427 25.0 
67.0578 42.0 
77.0419 116.0 
91.0557 125.0 
95.05 69.0 
103.0536 10.0 
105.033 36.0 
119.0479 11.0 
119.0847 30.0 
123.0442 999.0 
137.059 51.0 
147.0797 20.0 
165.0911 93.0 
END IONS

BEGIN IONS
INCHIKEY=NFACJZMKEDPNKN-UHFFFAOYSA-N
INCHI=InChI=1S/C4H8Cl3O4P/c1-10-12(9,11-2)3(8)4(5,6)7/h3,8H,1-2H3
SMILES=COP(=O)(C(C(Cl)(Cl)Cl)O)OC
INSTRUMENT_TYPE=LC-ESI-QTOF
INSTRUMENT=TripleTOF 6600 SCIEX
COLLISION_ENERGY=110
FORMULA=C4H8Cl3O4P
PARENT=256.9299
SPLASH=splash10-000t-9000000000-f77fe0a97daf5e04aa81
NUM_PEAKS=4
COMPOUND_NAME=Trichlorfon
SPECTRUM_ID=MSBNK-BAFG-CSL23111014346
ADDUCT=[M+H]+
MS_LEVEL=MS2
PRECURSOR_MZ=256.9299
IONMODE=positive
NOMINAL_MASS=256
PARENT_MASS=255.9226
46.9674 999.0 
47.9754 240.0 
62.9623 48.0 
82.9437 674.0 
END IONS

BEGIN IONS
INCHIKEY=YFBPRJGDJKVWAH-UHFFFAOYSA-N
INCHI=InChI=1S/C11H15NO2S/c1-7-5-9(14-11(13)12-3)6-8(2)10(7)15-4/h5-6H,1-4H3,(H,12,13)
SMILES=Cc1cc(cc(c1SC)C)OC(=O)NC
INSTRUMENT_TYPE=LC-ESI-QTOF
INSTRUMENT=TripleTOF 6600 SCIEX
COLLISION_ENERGY=30
FORMULA=C11H15NO2S
PARENT=226.0896
SPLASH=splash10-00di-2900000000-5a017459384e1ec96741
NUM_PEAKS=10
COMPOUND_NAME=Methiocarb
SPECTRUM_ID=MSBNK-BAFG-CSL23111027289
ADDUCT=[M+H]+
MS_LEVEL=MS2
PRECURSOR_MZ=226.0896
IONMODE=positive
NOMINAL_MASS=225
PARENT_MASS=225.0823
77.0359 149.0 
91.0516 146.0 
93.0672 193.0 
107.0462 98.0 
121.0622 999.0 
122.07 443.0 
123.0781 15.0 
153.035 13.0 
154.0423 30.0 
169.0656 68.0 
END IONS

BEGIN IONS
INCHIKEY=RLBIQVVOMOPOHC-UHFFFAOYSA-N
INCHI=InChI=1S/C8H10NO5PS/c1-12-15(16,13-2)14-8-5-3-7(4-6-8)9(10)11/h3-6H,1-2H3
SMILES=COP(=S)(OC)OC1=CC=C(C=C1)[N+](=O)[O-]
INSTRUMENT_TYPE=LC-ESI-QTOF
INSTRUMENT=TripleTOF 6600 SCIEX
COLLISION_ENERGY=130
FORMULA=C8H10NO5PS
PARENT=264.009
SPLASH=splash10-00di-9000000000-dcc7bf9114548854d6cf
NUM_PEAKS=14
COMPOUND_NAME=Parathion-methyl
SPECTRUM_ID=MSBNK-BAFG-CSL23111018873
ADDUCT=[M+H]+
MS_LEVEL=MS2
PRECURSOR_MZ=264.009
IONMODE=positive
NOMINAL_MASS=263
PARENT_MASS=263.0017
37.0051 79.0 
39.0223 63.0 
44.9779 396.0 
46.9669 317.0 
46.9943 95.0 
49.0063 190.0 
50.0135 459.0 
62.0138 174.0 
62.9439 253.0 
63.0211 142.0 
68.9777 317.0 
73.006 285.0 
74.0136 999.0 
75.0204 111.0 
END IONS

BEGIN IONS
INCHIKEY=NFACJZMKEDPNKN-UHFFFAOYSA-N
INCHI=InChI=1S/C4H8Cl3O4P/c1-10-12(9,11-2)3(8)4(5,6)7/h3,8H,1-2H3
SMILES=COP(=O)(C(C(Cl)(Cl)Cl)O)OC
INSTRUMENT_TYPE=LC-ESI-QTOF
INSTRUMENT=TripleTOF 6600 SCIEX
COLLISION_ENERGY=40
FORMULA=C4H8Cl3O4P
PARENT=256.9299
SPLASH=splash10-0a4i-6900000000-1952a238c81e63e7c1bf
NUM_PEAKS=12
COMPOUND_NAME=Trichlorfon
SPECTRUM_ID=MSBNK-BAFG-CSL23111014332
ADDUCT=[M+H]+
MS_LEVEL=MS2
PRECURSOR_MZ=256.9299
IONMODE=positive
NOMINAL_MASS=256
PARENT_MASS=255.9226
46.9675 43.0 
48.9833 11.0 
62.9983 26.0 
78.9934 430.0 
82.9438 151.0 
92.9722 14.0 
93.0088 56.0 
96.959 15.0 
109.0041 999.0 
110.9396 23.0 
112.954 17.0 
127.0145 47.0 
END IONS

BEGIN IONS
INCHIKEY=QGLZXHRNAYXIBU-UHFFFAOYSA-N
INCHI=InChI=1S/C7H14N2O2S/c1-7(2,12-4)5-9-11-6(10)8-3/h5H,1-4H3,(H,8,10)
SMILES=CC(C)(C=NOC(=O)NC)SC
INSTRUMENT_TYPE=LC-ESI-QTOF
INSTRUMENT=TripleTOF 6600 SCIEX
COLLISION_ENERGY=80
FORMULA=C7H14N2O2S
PARENT=213.0668
SPLASH=splash10-0a4i-9000000000-6124005f8228fdcac094
NUM_PEAKS=9
COMPOUND_NAME=Aldicarb
SPECTRUM_ID=MSBNK-BAFG-CSL23111016267
ADDUCT=[M+Na]+
MS_LEVEL=MS2
PRECURSOR_MZ=213.0668
IONMODE=positive
NOMINAL_MASS=190
PARENT_MASS=190.0776
37.0073 89.0 
38.016 63.0 
39.0234 412.0 
41.0392 185.0 
44.9799 105.0 
46.9951 105.0 
57.9875 63.0 
58.9956 999.0 
100.0224 58.0 
END IONS

BEGIN IONS
INCHIKEY=SBPBAQFWLVIOKP-UHFFFAOYSA-N
INCHI=InChI=1S/C9H11Cl3NO3PS/c1-3-14-17(18,15-4-2)16-9-7(11)5-6(10)8(12)13-9/h5H,3-4H2,1-2H3
SMILES=CCO[P](=S)(OCC)Oc1nc(Cl)c(Cl)cc1Cl
INSTRUMENT_TYPE=LC-ESI-QTOF
INSTRUMENT=TripleTOF 5600 SCIEX
COLLISION_ENERGY=60
FORMULA=C9H11Cl3NO3PS
PARENT=349.9336
SPLASH=splash10-0002-7900000000-55517df4ad4e7d5d63f9
NUM_PEAKS=14
COMPOUND_NAME=Chlorpyrifos
SPECTRUM_ID=MSBNK-BAFG-CSL2311107144
ADDUCT=[M+H]+
MS_LEVEL=MS2
PRECURSOR_MZ=349.9336
IONMODE=positive
NOMINAL_MASS=349
PARENT_MASS=348.9263
64.9823 14.0 
78.9422 55.0 
96.9525 999.0 
106.9453 238.0 
124.9821 38.0 
133.956 264.0 
143.9415 36.0 
150.9181 29.0 
161.9513 186.0 
177.9281 25.0 
179.9169 137.0 
197.9276 396.0 
211.8882 17.0 
213.9038 39.0 
END IONS

BEGIN IONS
INCHIKEY=YFBPRJGDJKVWAH-UHFFFAOYSA-N
INCHI=InChI=1S/C11H15NO2S/c1-7-5-9(14-11(13)12-3)6-8(2)10(7)15-4/h5-6H,1-4H3,(H,12,13)
SMILES=Cc1cc(cc(c1SC)C)OC(=O)NC
INSTRUMENT_TYPE=LC-ESI-QTOF
INSTRUMENT=TripleTOF 6600 SCIEX
COLLISION_ENERGY=100
FORMULA=C11H15NO2S
PARENT=226.0896
SPLASH=splash10-0ufr-9000000000-099c2685c1b20c2db729
NUM_PEAKS=33
COMPOUND_NAME=Methiocarb
SPECTRUM_ID=MSBNK-BAFG-CSL23111027296
ADDUCT=[M+H]+
MS_LEVEL=MS2
PRECURSOR_MZ=226.0896
IONMODE=positive
NOMINAL_MASS=225
PARENT_MASS=225.0823
35.9982 15.0 
37.005 71.0 
38.0133 67.0 
39.0209 281.0 
41.0357 60.0 
44.977 93.0 
49.005 33.0 
50.0126 322.0 
51.0207 999.0 
52.03 33.0 
53.036 86.0 
55.0159 33.0 
58.0274 18.0 
58.9928 22.0 
61.0063 18.0 
62.0126 41.0 
63.0203 75.0 
65.0359 221.0 
68.9778 37.0 
74.0127 30.0 
75.0205 22.0 
77.0358 980.0 
78.0438 86.0 
79.0517 71.0 
81.0306 18.0 
89.0358 37.0 
91.0516 210.0 
103.0527 26.0 
105.0399 15.0 
107.0466 56.0 
121.0075 18.0 
121.0615 22.0 
134.0173 22.0 
END IONS

BEGIN IONS
INCHIKEY=CVXBEEMKQHEXEN-UHFFFAOYSA-N
INCHI=InChI=1S/C12H11NO2/c1-13-12(14)15-11-8-4-6-9-5-2-3-7-10(9)11/h2-8H,1H3,(H,13,14)
SMILES=CNC(=O)Oc1cccc2ccccc12
INSTRUMENT_TYPE=LC-ESI-QTOF
INSTRUMENT=TripleTOF 5600 SCIEX
COLLISION_ENERGY=150
FORMULA=C12H11NO2
PARENT=202.0863
SPLASH=splash10-00di-9000000000-788fdf350a2924a4399f
NUM_PEAKS=9
COMPOUND_NAME=Carbaryl
SPECTRUM_ID=MSBNK-BAFG-CSL2311095485
ADDUCT=[M+H]+
MS_LEVEL=MS2
PRECURSOR_MZ=202.0863
IONMODE=positive
NOMINAL_MASS=201
PARENT_MASS=201.079
51.0278 163.0 
60.0045 61.0 
73.0101 366.0 
74.0173 999.0 
75.0264 71.0 
83.9998 40.0 
85.0073 183.0 
86.0178 101.0 
98.0154 81.0 
END IONS

BEGIN IONS
INCHIKEY=LCCNCVORNKJIRZ-UHFFFAOYSA-N
INCHI=InChI=1S/C10H14NO5PS/c1-3-14-17(18,15-4-2)16-10-7-5-9(6-8-10)11(12)13/h5-8H,3-4H2,1-2H3
SMILES=CCOP(=S)(OCC)Oc1ccc(cc1)[N+](=O)[O-]
INSTRUMENT_TYPE=LC-ESI-QTOF
INSTRUMENT=TripleTOF 5600 SCIEX
COLLISION_ENERGY=40
FORMULA=C10H14NO5PS
PARENT=292.0403
SPLASH=splash10-000l-4950000000-440a9cc5941cb6d6db95
NUM_PEAKS=29
COMPOUND_NAME=Parathion
SPECTRUM_ID=MSBNK-BAFG-CSL2311093077
ADDUCT=[M+H]+
MS_LEVEL=MS2
PRECURSOR_MZ=292.0403
IONMODE=positive
NOMINAL_MASS=291
PARENT_MASS=291.033
65.0396 22.0 
66.0503 33.0 
75.0276 33.0 
93.0339 73.0 
93.0574 39.0 
94.0421 564.0 
94.0689 39.0 
96.9514 299.0 
108.0035 22.0 
109.0115 45.0 
110.0177 383.0 
122.9901 39.0 
123.0308 412.0 
125.0042 45.0 
126.0127 22.0 
139.0083 39.0 
140.0331 265.0 
153.9949 33.0 
154.9686 33.0 
155.9957 163.0 
156.0081 163.0 
171.9736 163.0 
184.9793 22.0 
187.969 28.0 
189.9816 220.0 
201.986 39.0 
217.9644 225.0 
218.9717 84.0 
235.9749 999.0 
END IONS

BEGIN IONS
INCHIKEY=NFACJZMKEDPNKN-UHFFFAOYSA-N
INCHI=InChI=1S/C4H8Cl3O4P/c1-10-12(9,11-2)3(8)4(5,6)7/h3,8H,1-2H3
SMILES=COP(=O)(C(C(Cl)(Cl)Cl)O)OC
INSTRUMENT_TYPE=LC-ESI-QTOF
INSTRUMENT=TripleTOF 6600 SCIEX
COLLISION_ENERGY=90
FORMULA=C4H8Cl3O4P
PARENT=256.9299
SPLASH=splash10-001j-9000000000-e765e514adc8ee3da0cb
NUM_PEAKS=6
COMPOUND_NAME=Trichlorfon
SPECTRUM_ID=MSBNK-BAFG-CSL23111014337
ADDUCT=[M+H]+
MS_LEVEL=MS2
PRECURSOR_MZ=256.9299
IONMODE=positive
NOMINAL_MASS=256
PARENT_MASS=255.9226
46.9672 720.0 
47.9753 86.0 
48.9828 48.0 
62.9623 48.0 
78.9928 134.0 
82.9436 999.0 
END IONS

BEGIN IONS
INCHIKEY=YFBPRJGDJKVWAH-UHFFFAOYSA-N
INCHI=InChI=1S/C11H15NO2S/c1-7-5-9(14-11(13)12-3)6-8(2)10(7)15-4/h5-6H,1-4H3,(H,12,13)
SMILES=Cc1cc(cc(c1SC)C)OC(=O)NC
INSTRUMENT_TYPE=LC-ESI-QTOF
INSTRUMENT=TripleTOF 6600 SCIEX
COLLISION_ENERGY=40
FORMULA=C11H15NO2S
PARENT=226.0896
SPLASH=splash10-00dl-6900000000-be543e8ada4599d1b320
NUM_PEAKS=21
COMPOUND_NAME=Methiocarb
SPECTRUM_ID=MSBNK-BAFG-CSL23111027290
ADDUCT=[M+H]+
MS_LEVEL=MS2
PRECURSOR_MZ=226.0896
IONMODE=positive
NOMINAL_MASS=225
PARENT_MASS=225.0823
44.9765 14.0 
51.0201 11.0 
65.0359 22.0 
67.0515 22.0 
77.0359 768.0 
78.044 25.0 
79.052 64.0 
91.0515 607.0 
93.0672 444.0 
94.0753 20.0 
103.0513 37.0 
104.0588 21.0 
105.0417 24.0 
107.0465 720.0 
109.0616 16.0 
111.023 10.0 
121.0622 999.0 
122.0699 813.0 
123.0776 27.0 
153.0344 14.0 
154.0417 61.0 
END IONS

BEGIN IONS
INCHIKEY=ATROHALUCMTWTB-WYMLVPIESA-N
INCHI=InChI=1S/C12H15N2O3PS/c1-3-15-18(19,16-4-2)17-14-12(10-13)11-8-6-5-7-9-11/h5-9H,3-4H2,1-2H3/b14-12+
SMILES=CCOP(=S)(OCC)O/N=C(\C#N)/C1=CC=CC=C1
INSTRUMENT_TYPE=LC-ESI-QTOF
INSTRUMENT=TripleTOF 6600 SCIEX
COLLISION_ENERGY=110
FORMULA=C12H15N2O3PS
PARENT=299.0614
SPLASH=splash10-0udi-9000000000-3cbd65ca0e9948926ac9
NUM_PEAKS=9
COMPOUND_NAME=Phoxim
SPECTRUM_ID=MSBNK-BAFG-CSL23111017830
ADDUCT=[M+H]+
MS_LEVEL=MS2
PRECURSOR_MZ=299.0614
IONMODE=positive
NOMINAL_MASS=298
PARENT_MASS=298.0541
46.967 52.0 
49.0064 76.0 
50.0144 423.0 
51.0224 999.0 
62.9621 15.0 
64.9773 27.0 
74.0139 17.0 
77.0373 111.0 
78.9385 26.0 
END IONS

BEGIN IONS
INCHIKEY=ATROHALUCMTWTB-WYMLVPIESA-N
INCHI=InChI=1S/C12H15N2O3PS/c1-3-15-18(19,16-4-2)17-14-12(10-13)11-8-6-5-7-9-11/h5-9H,3-4H2,1-2H3/b14-12+
SMILES=CCOP(=S)(OCC)O/N=C(\C#N)/C1=CC=CC=C1
INSTRUMENT_TYPE=LC-ESI-QTOF
INSTRUMENT=TripleTOF 6600 SCIEX
COLLISION_ENERGY=130
FORMULA=C12H15N2O3PS
PARENT=299.0614
SPLASH=splash10-0udi-9000000000-212a32bcab5a6a20b1dc
NUM_PEAKS=9
COMPOUND_NAME=Phoxim
SPECTRUM_ID=MSBNK-BAFG-CSL23111017833
ADDUCT=[M+H]+
MS_LEVEL=MS2
PRECURSOR_MZ=299.0614
IONMODE=positive
NOMINAL_MASS=298
PARENT_MASS=298.0541
46.9669 95.0 
49.0061 160.0 
50.0142 852.0 
51.0223 999.0 
62.9618 27.0 
64.978 17.0 
74.0137 44.0 
77.0375 54.0 
78.9399 17.0 
END IONS

BEGIN IONS
INCHIKEY=LCCNCVORNKJIRZ-UHFFFAOYSA-N
INCHI=InChI=1S/C10H14NO5PS/c1-3-14-17(18,15-4-2)16-10-7-5-9(6-8-10)11(12)13/h5-8H,3-4H2,1-2H3
SMILES=CCOP(=S)(OCC)Oc1ccc(cc1)[N+](=O)[O-]
INSTRUMENT_TYPE=LC-ESI-QTOF
INSTRUMENT=TripleTOF 5600 SCIEX
COLLISION_ENERGY=100
FORMULA=C10H14NO5PS
PARENT=292.0403
SPLASH=splash10-016r-9000000000-2bffe52f7b4f2e08db8b
NUM_PEAKS=10
COMPOUND_NAME=Parathion
SPECTRUM_ID=MSBNK-BAFG-CSL2311093079
ADDUCT=[M+H]+
MS_LEVEL=MS2
PRECURSOR_MZ=292.0403
IONMODE=positive
NOMINAL_MASS=291
PARENT_MASS=291.033
64.9818 407.0 
65.0415 962.0 
66.0504 777.0 
74.0184 518.0 
75.0259 999.0 
77.0396 222.0 
78.9406 259.0 
94.042 554.0 
96.9516 333.0 
108.0011 148.0 
END IONS

BEGIN IONS
INCHIKEY=FHIVAFMUCKRCQO-UHFFFAOYSA-N
INCHI=InChI=1S/C12H21N2O3PS/c1-6-15-18(19,16-7-2)17-11-8-10(5)13-12(14-11)9(3)4/h8-9H,6-7H2,1-5H3
SMILES=CCO[P](=S)(OCC)Oc1cc(C)nc(n1)C(C)C
INSTRUMENT_TYPE=LC-ESI-QTOF
INSTRUMENT=TripleTOF 5600 SCIEX
COLLISION_ENERGY=80
FORMULA=C12H21N2O3PS
PARENT=305.1083
SPLASH=splash10-0002-9100000000-bc1edfa08c9e1d783ffc
NUM_PEAKS=19
COMPOUND_NAME=Diazinon
SPECTRUM_ID=MSBNK-BAFG-CSL2311094559
ADDUCT=[M+H]+
MS_LEVEL=MS2
PRECURSOR_MZ=305.1083
IONMODE=positive
NOMINAL_MASS=304
PARENT_MASS=304.1011
42.0442 87.0 
56.0554 10.0 
59.0 38.0 
59.9951 23.0 
62.9677 28.0 
64.9839 180.0 
66.0375 11.0 
67.0457 68.0 
70.069 54.0 
78.9436 241.0 
80.9768 133.0 
82.9972 49.0 
84.0468 100.0 
90.9958 25.0 
96.9526 999.0 
100.0225 172.0 
137.0705 13.0 
153.0483 47.0 
169.0782 10.0 
END IONS

BEGIN IONS
INCHIKEY=QGLZXHRNAYXIBU-UHFFFAOYSA-N
INCHI=InChI=1S/C7H14N2O2S/c1-7(2,12-4)5-9-11-6(10)8-3/h5H,1-4H3,(H,8,10)
SMILES=CC(C)(C=NOC(=O)NC)SC
INSTRUMENT_TYPE=LC-ESI-QTOF
INSTRUMENT=TripleTOF 6600 SCIEX
COLLISION_ENERGY=110
FORMULA=C7H14N2O2S
PARENT=213.0668
SPLASH=splash10-0a4i-9000000000-07ae78bb2e49a2f909e3
NUM_PEAKS=7
COMPOUND_NAME=Aldicarb
SPECTRUM_ID=MSBNK-BAFG-CSL23111016277
ADDUCT=[M+Na]+
MS_LEVEL=MS2
PRECURSOR_MZ=213.0668
IONMODE=positive
NOMINAL_MASS=190
PARENT_MASS=190.0776
37.0079 86.0 
38.0153 79.0 
39.0233 244.0 
44.9795 145.0 
46.9955 99.0 
57.9875 158.0 
58.9954 999.0 
END IONS

BEGIN IONS
INCHIKEY=YFBPRJGDJKVWAH-UHFFFAOYSA-N
INCHI=InChI=1S/C11H15NO2S/c1-7-5-9(14-11(13)12-3)6-8(2)10(7)15-4/h5-6H,1-4H3,(H,12,13)
SMILES=Cc1cc(cc(c1SC)C)OC(=O)NC
INSTRUMENT_TYPE=LC-ESI-QTOF
INSTRUMENT=TripleTOF 6600 SCIEX
COLLISION_ENERGY=50
FORMULA=C11H15NO2S
PARENT=226.0896
SPLASH=splash10-056u-9600000000-101b63a40f5767257498
NUM_PEAKS=21
COMPOUND_NAME=Methiocarb
SPECTRUM_ID=MSBNK-BAFG-CSL23111027291
ADDUCT=[M+H]+
MS_LEVEL=MS2
PRECURSOR_MZ=226.0896
IONMODE=positive
NOMINAL_MASS=225
PARENT_MASS=225.0823
44.9767 12.0 
51.0205 63.0 
53.0366 11.0 
65.036 51.0 
67.0519 19.0 
77.0359 999.0 
78.0435 44.0 
79.0512 131.0 
91.0513 505.0 
93.0668 144.0 
94.0749 13.0 
103.0511 38.0 
104.0585 22.0 
105.0413 31.0 
107.0462 860.0 
111.0235 25.0 
121.0619 339.0 
122.0697 177.0 
135.0231 10.0 
139.0172 11.0 
154.0412 16.0 
END IONS

BEGIN IONS
INCHIKEY=QGLZXHRNAYXIBU-UHFFFAOYSA-N
INCHI=InChI=1S/C7H14N2O2S/c1-7(2,12-4)5-9-11-6(10)8-3/h5H,1-4H3,(H,8,10)
SMILES=CC(C)(C=NOC(=O)NC)SC
INSTRUMENT_TYPE=LC-ESI-QTOF
INSTRUMENT=TripleTOF 6600 SCIEX
COLLISION_ENERGY=60
FORMULA=C7H14N2O2S
PARENT=213.0668
SPLASH=splash10-052u-9000000000-56a36bd9e7de05822da8
NUM_PEAKS=10
COMPOUND_NAME=Aldicarb
SPECTRUM_ID=MSBNK-BAFG-CSL23111016266
ADDUCT=[M+Na]+
MS_LEVEL=MS2
PRECURSOR_MZ=213.0668
IONMODE=positive
NOMINAL_MASS=190
PARENT_MASS=190.0776
37.0078 120.0 
38.0156 145.0 
39.0236 886.0 
41.0392 902.0 
44.9798 185.0 
46.9953 217.0 
58.9953 999.0 
74.0187 161.0 
89.043 346.0 
100.0224 209.0 
END IONS

BEGIN IONS
INCHIKEY=OEBRKCOSUFCWJD-UHFFFAOYSA-N
INCHI=InChI=1S/C4H7Cl2O4P/c1-8-11(7,9-2)10-3-4(5)6/h3H,1-2H3
SMILES=CO[P](=O)(OC)OC=C(Cl)Cl
INSTRUMENT_TYPE=LC-ESI-QTOF
INSTRUMENT=TripleTOF 5600 SCIEX
COLLISION_ENERGY=130
FORMULA=C4H7Cl2O4P
PARENT=220.9532
SPLASH=splash10-0a4i-9000000000-54fa48ebad7210f3261d
NUM_PEAKS=5
COMPOUND_NAME=Dichlorvos
SPECTRUM_ID=MSBNK-BAFG-CSL2311096047
ADDUCT=[M+H]+
MS_LEVEL=MS2
PRECURSOR_MZ=220.9532
IONMODE=positive
NOMINAL_MASS=220
PARENT_MASS=219.9459
47.9834 63.0 
51.0283 111.0 
59.9813 999.0 
65.042 79.0 
77.042 79.0 
END IONS

BEGIN IONS
INCHIKEY=NFACJZMKEDPNKN-UHFFFAOYSA-N
INCHI=InChI=1S/C4H8Cl3O4P/c1-10-12(9,11-2)3(8)4(5,6)7/h3,8H,1-2H3
SMILES=COP(=O)(C(C(Cl)(Cl)Cl)O)OC
INSTRUMENT_TYPE=LC-ESI-QTOF
INSTRUMENT=TripleTOF 6600 SCIEX
COLLISION_ENERGY=100
FORMULA=C4H8Cl3O4P
PARENT=256.9299
SPLASH=splash10-000t-9000000000-112493d3da3dda57c688
NUM_PEAKS=4
COMPOUND_NAME=Trichlorfon
SPECTRUM_ID=MSBNK-BAFG-CSL23111014344
ADDUCT=[M+H]+
MS_LEVEL=MS2
PRECURSOR_MZ=256.9299
IONMODE=positive
NOMINAL_MASS=256
PARENT_MASS=255.9226
46.9674 999.0 
47.9755 188.0 
78.9928 67.0 
82.9437 999.0 
END IONS

BEGIN IONS
INCHIKEY=QGLZXHRNAYXIBU-UHFFFAOYSA-N
INCHI=InChI=1S/C7H14N2O2S/c1-7(2,12-4)5-9-11-6(10)8-3/h5H,1-4H3,(H,8,10)
SMILES=CC(C)(C=NOC(=O)NC)SC
INSTRUMENT_TYPE=LC-ESI-QTOF
INSTRUMENT=TripleTOF 6600 SCIEX
COLLISION_ENERGY=40
FORMULA=C7H14N2O2S
PARENT=213.0668
SPLASH=splash10-000i-9000000000-9845ff86f2b2c3fe3539
NUM_PEAKS=6
COMPOUND_NAME=Aldicarb
SPECTRUM_ID=MSBNK-BAFG-CSL23111016280
ADDUCT=[M+Na]+
MS_LEVEL=MS2
PRECURSOR_MZ=213.0668
IONMODE=positive
NOMINAL_MASS=190
PARENT_MASS=190.0776
39.0234 115.0 
41.0392 237.0 
46.9953 60.0 
70.0654 84.0 
89.0427 999.0 
100.0221 58.0 
END IONS

BEGIN IONS
INCHIKEY=SBPBAQFWLVIOKP-UHFFFAOYSA-N
INCHI=InChI=1S/C9H11Cl3NO3PS/c1-3-14-17(18,15-4-2)16-9-7(11)5-6(10)8(12)13-9/h5H,3-4H2,1-2H3
SMILES=CCO[P](=S)(OCC)Oc1nc(Cl)c(Cl)cc1Cl
INSTRUMENT_TYPE=LC-ESI-QTOF
INSTRUMENT=TripleTOF 5600 SCIEX
COLLISION_ENERGY=110
FORMULA=C9H11Cl3NO3PS
PARENT=349.9336
SPLASH=splash10-0a4j-8900000000-1d176c0c9c5896806943
NUM_PEAKS=22
COMPOUND_NAME=Chlorpyrifos
SPECTRUM_ID=MSBNK-BAFG-CSL2311107151
ADDUCT=[M+H]+
MS_LEVEL=MS2
PRECURSOR_MZ=349.9336
IONMODE=positive
NOMINAL_MASS=349
PARENT_MASS=348.9263
46.9912 13.0 
61.9846 38.0 
64.9828 269.0 
70.9745 16.0 
71.9795 61.0 
72.9862 19.0 
74.0059 11.0 
78.9422 338.0 
82.9467 16.0 
83.9778 74.0 
96.9515 738.0 
96.9812 13.0 
97.9791 13.0 
106.9454 999.0 
108.9712 327.0 
109.9791 30.0 
117.9357 24.0 
118.9455 88.0 
133.9534 11.0 
143.9398 122.0 
144.9488 19.0 
179.9146 27.0 
END IONS

BEGIN IONS
INCHIKEY=RLBIQVVOMOPOHC-UHFFFAOYSA-N
INCHI=InChI=1S/C8H10NO5PS/c1-12-15(16,13-2)14-8-5-3-7(4-6-8)9(10)11/h3-6H,1-2H3
SMILES=COP(=S)(OC)OC1=CC=C(C=C1)[N+](=O)[O-]
INSTRUMENT_TYPE=LC-ESI-QTOF
INSTRUMENT=TripleTOF 6600 SCIEX
COLLISION_ENERGY=40
FORMULA=C8H10NO5PS
PARENT=264.009
SPLASH=splash10-0fmi-5900000000-dacb0fdf60f552a8e10c
NUM_PEAKS=46
COMPOUND_NAME=Parathion-methyl
SPECTRUM_ID=MSBNK-BAFG-CSL23111018884
ADDUCT=[M+H]+
MS_LEVEL=MS2
PRECURSOR_MZ=264.009
IONMODE=positive
NOMINAL_MASS=263
PARENT_MASS=263.0017
44.9787 55.0 
46.9677 23.0 
46.9939 186.0 
62.0171 55.0 
62.9458 15.0 
63.0217 43.0 
64.0282 59.0 
65.0381 23.0 
69.9857 15.0 
75.0212 340.0 
76.0292 27.0 
78.993 642.0 
91.0544 19.0 
92.024 309.0 
93.0091 35.0 
93.0332 31.0 
96.0012 111.0 
107.9996 43.0 
109.0028 360.0 
110.0203 27.0 
122.023 51.0 
123.0289 67.0 
123.9972 71.0 
124.9801 999.0 
125.0085 19.0 
125.9682 19.0 
126.9747 19.0 
127.0146 43.0 
137.9849 15.0 
139.0174 59.0 
141.9652 23.0 
142.9958 39.0 
150.0282 154.0 
152.9558 31.0 
153.9623 372.0 
154.9696 471.0 
155.9776 55.0 
156.9858 23.0 
170.9626 55.0 
184.981 114.0 
185.9885 182.0 
199.9564 170.0 
214.976 51.0 
214.9852 23.0 
218.0187 31.0 
231.9813 95.0 
END IONS

BEGIN IONS
INCHIKEY=CVXBEEMKQHEXEN-UHFFFAOYSA-N
INCHI=InChI=1S/C12H11NO2/c1-13-12(14)15-11-8-4-6-9-5-2-3-7-10(9)11/h2-8H,1H3,(H,13,14)
SMILES=CNC(=O)Oc1cccc2ccccc12
INSTRUMENT_TYPE=LC-ESI-QTOF
INSTRUMENT=TripleTOF 5600 SCIEX
COLLISION_ENERGY=140
FORMULA=C12H11NO2
PARENT=202.0863
SPLASH=splash10-00di-9000000000-4858ba1f74a564216579
NUM_PEAKS=10
COMPOUND_NAME=Carbaryl
SPECTRUM_ID=MSBNK-BAFG-CSL2311095487
ADDUCT=[M+H]+
MS_LEVEL=MS2
PRECURSOR_MZ=202.0863
IONMODE=positive
NOMINAL_MASS=201
PARENT_MASS=201.079
51.0285 305.0 
60.0062 40.0 
73.0093 295.0 
74.0176 999.0 
75.0268 142.0 
84.0038 71.0 
85.0105 183.0 
86.0183 132.0 
97.0107 81.0 
98.0165 112.0 
END IONS

BEGIN IONS
INCHIKEY=JXSJBGJIGXNWCI-UHFFFAOYSA-N
INCHI=InChI=1S/C10H19O6PS2/c1-5-15-9(11)7-8(10(12)16-6-2)19-17(18,13-3)14-4/h8H,5-7H2,1-4H3
SMILES=CCOC(=O)CC(C(=O)OCC)SP(=S)(OC)OC
INSTRUMENT_TYPE=LC-ESI-QTOF
INSTRUMENT=TripleTOF 5600 SCIEX
COLLISION_ENERGY=70
FORMULA=C10H19O6PS2
PARENT=331.0433
SPLASH=splash10-00dj-9400000000-deff3d4a8eb86a240156
NUM_PEAKS=12
COMPOUND_NAME=Malathion
SPECTRUM_ID=MSBNK-BAFG-CSL23111010793
ADDUCT=[M+H]+
MS_LEVEL=MS2
PRECURSOR_MZ=331.0433
IONMODE=positive
NOMINAL_MASS=330
PARENT_MASS=330.0361
44.9796 56.0 
46.9681 45.0 
46.9941 124.0 
71.0118 272.0 
78.9936 363.0 
86.9886 56.0 
93.0092 56.0 
98.985 79.0 
99.0071 999.0 
110.9652 68.0 
118.9641 102.0 
124.9818 942.0 
END IONS

BEGIN IONS
INCHIKEY=FHIVAFMUCKRCQO-UHFFFAOYSA-N
INCHI=InChI=1S/C12H21N2O3PS/c1-6-15-18(19,16-7-2)17-11-8-10(5)13-12(14-11)9(3)4/h8-9H,6-7H2,1-5H3
SMILES=CCO[P](=S)(OCC)Oc1cc(C)nc(n1)C(C)C
INSTRUMENT_TYPE=LC-ESI-QTOF
INSTRUMENT=TripleTOF 5600 SCIEX
COLLISION_ENERGY=150
FORMULA=C12H21N2O3PS
PARENT=305.1083
SPLASH=splash10-03fs-9000000000-38e8a6a817852e57e124
NUM_PEAKS=24
COMPOUND_NAME=Diazinon
SPECTRUM_ID=MSBNK-BAFG-CSL2311094552
ADDUCT=[M+H]+
MS_LEVEL=MS2
PRECURSOR_MZ=305.1083
IONMODE=positive
NOMINAL_MASS=304
PARENT_MASS=304.1011
37.019 23.0 
42.0429 263.0 
44.0226 15.0 
46.9774 999.0 
47.0124 19.0 
54.0402 59.0 
56.9848 29.0 
57.9927 91.0 
59.0002 63.0 
59.9951 75.0 
62.9495 31.0 
62.9681 531.0 
64.9839 963.0 
65.0199 13.0 
65.0428 23.0 
67.0456 27.0 
68.0184 9.0 
71.0046 11.0 
78.9433 897.0 
80.0542 11.0 
80.9757 155.0 
82.9976 45.0 
83.9918 15.0 
96.9517 329.0 
END IONS

BEGIN IONS
INCHIKEY=LCCNCVORNKJIRZ-UHFFFAOYSA-N
INCHI=InChI=1S/C10H14NO5PS/c1-3-14-17(18,15-4-2)16-10-7-5-9(6-8-10)11(12)13/h5-8H,3-4H2,1-2H3
SMILES=CCOP(=S)(OCC)Oc1ccc(cc1)[N+](=O)[O-]
INSTRUMENT_TYPE=LC-ESI-QTOF
INSTRUMENT=TripleTOF 5600 SCIEX
COLLISION_ENERGY=90
FORMULA=C10H14NO5PS
PARENT=292.0403
SPLASH=splash10-014i-9000000000-c2f77c0358083aa79808
NUM_PEAKS=12
COMPOUND_NAME=Parathion
SPECTRUM_ID=MSBNK-BAFG-CSL2311093072
ADDUCT=[M+H]+
MS_LEVEL=MS2
PRECURSOR_MZ=292.0403
IONMODE=positive
NOMINAL_MASS=291
PARENT_MASS=291.033
64.9815 204.0 
65.041 999.0 
66.0503 896.0 
74.0177 230.0 
75.0266 512.0 
76.0329 153.0 
77.0421 102.0 
78.9427 179.0 
94.0425 614.0 
96.9498 281.0 
97.01 128.0 
109.0092 153.0 
END IONS

BEGIN IONS
INCHIKEY=YFBPRJGDJKVWAH-UHFFFAOYSA-N
INCHI=InChI=1S/C11H15NO2S/c1-7-5-9(14-11(13)12-3)6-8(2)10(7)15-4/h5-6H,1-4H3,(H,12,13)
SMILES=Cc1cc(cc(c1SC)C)OC(=O)NC
INSTRUMENT_TYPE=LC-ESI-QTOF
INSTRUMENT=TripleTOF 6600 SCIEX
COLLISION_ENERGY=140
FORMULA=C11H15NO2S
PARENT=226.0896
SPLASH=splash10-0udr-9000000000-8007296ebdc43dc7b056
NUM_PEAKS=25
COMPOUND_NAME=Methiocarb
SPECTRUM_ID=MSBNK-BAFG-CSL23111027300
ADDUCT=[M+H]+
MS_LEVEL=MS2
PRECURSOR_MZ=226.0896
IONMODE=positive
NOMINAL_MASS=225
PARENT_MASS=225.0823
35.9973 41.0 
37.0051 263.0 
38.001 27.0 
38.0131 215.0 
39.0212 561.0 
43.9696 55.0 
44.977 187.0 
49.0048 194.0 
50.0128 999.0 
51.0205 790.0 
53.0366 27.0 
58.9927 27.0 
59.997 34.0 
61.0045 159.0 
62.0122 145.0 
63.0206 124.0 
65.037 90.0 
67.9675 34.0 
68.9767 104.0 
74.0122 104.0 
75.0207 27.0 
77.0362 111.0 
89.0353 41.0 
91.0513 41.0 
92.9757 34.0 
END IONS

BEGIN IONS
INCHIKEY=OEBRKCOSUFCWJD-UHFFFAOYSA-N
INCHI=InChI=1S/C4H7Cl2O4P/c1-8-11(7,9-2)10-3-4(5)6/h3H,1-2H3
SMILES=CO[P](=O)(OC)OC=C(Cl)Cl
INSTRUMENT_TYPE=LC-ESI-QTOF
INSTRUMENT=TripleTOF 5600 SCIEX
COLLISION_ENERGY=80
FORMULA=C4H7Cl2O4P
PARENT=220.9532
SPLASH=splash10-0a6u-9000000000-82a064725eecf405b59c
NUM_PEAKS=12
COMPOUND_NAME=Dichlorvos
SPECTRUM_ID=MSBNK-BAFG-CSL2311096044
ADDUCT=[M+H]+
MS_LEVEL=MS2
PRECURSOR_MZ=220.9532
IONMODE=positive
NOMINAL_MASS=220
PARENT_MASS=219.9459
47.984 54.0 
59.9812 999.0 
65.0423 228.0 
77.0403 532.0 
78.9973 173.0 
79.058 119.0 
91.0569 325.0 
94.9458 542.0 
94.9919 97.0 
103.0529 65.0 
109.0066 54.0 
115.053 173.0 
END IONS

BEGIN IONS
INCHIKEY=YFBPRJGDJKVWAH-UHFFFAOYSA-N
INCHI=InChI=1S/C11H15NO2S/c1-7-5-9(14-11(13)12-3)6-8(2)10(7)15-4/h5-6H,1-4H3,(H,12,13)
SMILES=Cc1cc(cc(c1SC)C)OC(=O)NC
INSTRUMENT_TYPE=LC-ESI-QTOF
INSTRUMENT=TripleTOF 6600 SCIEX
COLLISION_ENERGY=40
FORMULA=C11H15NO2S
PARENT=226.0896
SPLASH=splash10-05i3-7900000000-9e22e24b814c4caeb00a
NUM_PEAKS=21
COMPOUND_NAME=Methiocarb
SPECTRUM_ID=MSBNK-BAFG-CSL23111027302
ADDUCT=[M+H]+
MS_LEVEL=MS2
PRECURSOR_MZ=226.0896
IONMODE=positive
NOMINAL_MASS=225
PARENT_MASS=225.0823
51.0205 42.0 
65.0356 35.0 
67.0512 24.0 
77.0378 999.0 
78.0426 42.0 
79.0535 102.0 
91.0533 657.0 
93.0689 380.0 
94.0748 19.0 
103.0506 46.0 
104.0605 28.0 
105.0412 25.0 
107.0482 872.0 
109.0626 10.0 
111.023 21.0 
121.0641 880.0 
122.0697 616.0 
123.0772 17.0 
139.019 12.0 
154.0428 46.0 
169.0669 19.0 
END IONS

BEGIN IONS
INCHIKEY=FHIVAFMUCKRCQO-UHFFFAOYSA-N
INCHI=InChI=1S/C12H21N2O3PS/c1-6-15-18(19,16-7-2)17-11-8-10(5)13-12(14-11)9(3)4/h8-9H,6-7H2,1-5H3
SMILES=CCO[P](=S)(OCC)Oc1cc(C)nc(n1)C(C)C
INSTRUMENT_TYPE=LC-ESI-QTOF
INSTRUMENT=TripleTOF 5600 SCIEX
COLLISION_ENERGY=40
FORMULA=C12H21N2O3PS
PARENT=305.1083
SPLASH=splash10-0gba-4900000000-a16c50badd379319f973
NUM_PEAKS=19
COMPOUND_NAME=Diazinon
SPECTRUM_ID=MSBNK-BAFG-CSL2311094556
ADDUCT=[M+H]+
MS_LEVEL=MS2
PRECURSOR_MZ=305.1083
IONMODE=positive
NOMINAL_MASS=304
PARENT_MASS=304.1011
42.0432 11.0 
64.983 14.0 
67.0459 19.0 
70.0697 66.0 
78.9428 25.0 
80.9762 45.0 
84.0477 159.0 
90.9956 21.0 
96.9529 544.0 
100.0234 237.0 
109.005 25.0 
124.9826 95.0 
153.1029 583.0 
154.0557 19.0 
169.0798 999.0 
181.1328 22.0 
231.0349 16.0 
249.0457 19.0 
305.1078 92.0 
END IONS

BEGIN IONS
INCHIKEY=YFGYUFNIOHWBOB-UHFFFAOYSA-N
INCHI=InChI=1S/C11H18N4O2/c1-7-8(2)12-10(14(3)4)13-9(7)17-11(16)15(5)6/h1-6H3
SMILES=CC1=C(N=C(N=C1OC(=O)N(C)C)N(C)C)C
INSTRUMENT_TYPE=LC-ESI-QTOF
INSTRUMENT=TripleTOF 6600 SCIEX
COLLISION_ENERGY=120
FORMULA=C11H18N4O2
PARENT=239.1503
SPLASH=splash10-0aou-9000000000-d6f31cc69015a6aa053d
NUM_PEAKS=6
COMPOUND_NAME=Pirimicarb
SPECTRUM_ID=MSBNK-BAFG-CSL23111017378
ADDUCT=[M+H]+
MS_LEVEL=MS2
PRECURSOR_MZ=239.1503
IONMODE=positive
NOMINAL_MASS=238
PARENT_MASS=238.143
39.0236 249.0 
42.0337 999.0 
55.0291 399.0 
56.0131 949.0 
69.0447 799.0 
72.0437 449.0 
END IONS

BEGIN IONS
INCHIKEY=JXSJBGJIGXNWCI-UHFFFAOYSA-N
INCHI=InChI=1S/C10H19O6PS2/c1-5-15-9(11)7-8(10(12)16-6-2)19-17(18,13-3)14-4/h8H,5-7H2,1-4H3
SMILES=CCOC(=O)CC(C(=O)OCC)SP(=S)(OC)OC
INSTRUMENT_TYPE=LC-ESI-QTOF
INSTRUMENT=TripleTOF 5600 SCIEX
COLLISION_ENERGY=20
FORMULA=C10H19O6PS2
PARENT=331.0433
SPLASH=splash10-004i-2920000000-e1e6de80c80cd6dd9427
NUM_PEAKS=12
COMPOUND_NAME=Malathion
SPECTRUM_ID=MSBNK-BAFG-CSL23111010792
ADDUCT=[M+H]+
MS_LEVEL=MS2
PRECURSOR_MZ=331.0433
IONMODE=positive
NOMINAL_MASS=330
PARENT_MASS=330.0361
99.0072 343.0 
99.0434 14.0 
114.983 12.0 
124.9808 71.0 
127.0383 999.0 
143.0163 15.0 
146.9913 17.0 
158.9682 18.0 
189.059 20.0 
210.964 90.0 
257.0052 132.0 
285.0008 128.0 
END IONS

BEGIN IONS
INCHIKEY=SBPBAQFWLVIOKP-UHFFFAOYSA-N
INCHI=InChI=1S/C9H11Cl3NO3PS/c1-3-14-17(18,15-4-2)16-9-7(11)5-6(10)8(12)13-9/h5H,3-4H2,1-2H3
SMILES=CCO[P](=S)(OCC)Oc1nc(Cl)c(Cl)cc1Cl
INSTRUMENT_TYPE=LC-ESI-QTOF
INSTRUMENT=TripleTOF 5600 SCIEX
COLLISION_ENERGY=80
FORMULA=C9H11Cl3NO3PS
PARENT=349.9336
SPLASH=splash10-052b-8900000000-e31fbe6b685e957410cc
NUM_PEAKS=16
COMPOUND_NAME=Chlorpyrifos
SPECTRUM_ID=MSBNK-BAFG-CSL2311107148
ADDUCT=[M+H]+
MS_LEVEL=MS2
PRECURSOR_MZ=349.9336
IONMODE=positive
NOMINAL_MASS=349
PARENT_MASS=348.9263
64.9823 84.0 
78.9424 203.0 
82.948 9.0 
83.9779 15.0 
96.9519 999.0 
106.9456 714.0 
108.972 49.0 
118.9459 64.0 
124.9808 10.0 
133.9556 159.0 
143.9397 154.0 
150.9166 29.0 
161.9517 46.0 
177.9285 12.0 
179.9163 160.0 
197.9271 40.0 
END IONS

BEGIN IONS
INCHIKEY=OEBRKCOSUFCWJD-UHFFFAOYSA-N
INCHI=InChI=1S/C4H7Cl2O4P/c1-8-11(7,9-2)10-3-4(5)6/h3H,1-2H3
SMILES=CO[P](=O)(OC)OC=C(Cl)Cl
INSTRUMENT_TYPE=LC-ESI-QTOF
INSTRUMENT=TripleTOF 5600 SCIEX
COLLISION_ENERGY=70
FORMULA=C4H7Cl2O4P
PARENT=220.9532
SPLASH=splash10-054o-9000000000-9680c8249e251a731427
NUM_PEAKS=16
COMPOUND_NAME=Dichlorvos
SPECTRUM_ID=MSBNK-BAFG-CSL2311096042
ADDUCT=[M+H]+
MS_LEVEL=MS2
PRECURSOR_MZ=220.9532
IONMODE=positive
NOMINAL_MASS=220
PARENT_MASS=219.9459
43.0252 63.0 
51.034 50.0 
55.0578 126.0 
59.9802 999.0 
65.0418 252.0 
77.0403 796.0 
78.9951 278.0 
79.0158 50.0 
79.0551 214.0 
91.0541 531.0 
94.9451 821.0 
94.9902 214.0 
103.0531 63.0 
107.0476 63.0 
109.0048 189.0 
115.0523 126.0 
END IONS

BEGIN IONS
INCHIKEY=SBPBAQFWLVIOKP-UHFFFAOYSA-N
INCHI=InChI=1S/C9H11Cl3NO3PS/c1-3-14-17(18,15-4-2)16-9-7(11)5-6(10)8(12)13-9/h5H,3-4H2,1-2H3
SMILES=CCO[P](=S)(OCC)Oc1nc(Cl)c(Cl)cc1Cl
INSTRUMENT_TYPE=LC-ESI-QTOF
INSTRUMENT=TripleTOF 5600 SCIEX
COLLISION_ENERGY=70
FORMULA=C9H11Cl3NO3PS
PARENT=349.9336
SPLASH=splash10-0002-7900000000-a315e3dd07f73982962a
NUM_PEAKS=14
COMPOUND_NAME=Chlorpyrifos
SPECTRUM_ID=MSBNK-BAFG-CSL2311107142
ADDUCT=[M+H]+
MS_LEVEL=MS2
PRECURSOR_MZ=349.9336
IONMODE=positive
NOMINAL_MASS=349
PARENT_MASS=348.9263
64.9822 33.0 
78.9421 105.0 
96.9516 999.0 
106.9448 487.0 
108.9703 18.0 
118.9449 23.0 
124.9827 21.0 
133.9554 241.0 
143.939 88.0 
150.9156 36.0 
161.9506 113.0 
177.9275 15.0 
179.9159 174.0 
197.9269 155.0 
END IONS

BEGIN IONS
INCHIKEY=YFGYUFNIOHWBOB-UHFFFAOYSA-N
INCHI=InChI=1S/C11H18N4O2/c1-7-8(2)12-10(14(3)4)13-9(7)17-11(16)15(5)6/h1-6H3
SMILES=CC1=C(N=C(N=C1OC(=O)N(C)C)N(C)C)C
INSTRUMENT_TYPE=LC-ESI-QTOF
INSTRUMENT=TripleTOF 6600 SCIEX
COLLISION_ENERGY=70
FORMULA=C11H18N4O2
PARENT=239.1503
SPLASH=splash10-00di-9000000000-5181f87ef35db501953f
NUM_PEAKS=20
COMPOUND_NAME=Pirimicarb
SPECTRUM_ID=MSBNK-BAFG-CSL23111017368
ADDUCT=[M+H]+
MS_LEVEL=MS2
PRECURSOR_MZ=239.1503
IONMODE=positive
NOMINAL_MASS=238
PARENT_MASS=238.143
42.0337 46.0 
44.0494 43.0 
53.0379 15.0 
55.0286 14.0 
56.013 133.0 
58.065 22.0 
68.0492 16.0 
69.0445 49.0 
69.0565 26.0 
70.0517 19.0 
71.0599 16.0 
72.0444 999.0 
83.0234 37.0 
85.0757 46.0 
93.0437 28.0 
94.0522 18.0 
95.0594 14.0 
109.0752 38.0 
123.0543 16.0 
152.0797 10.0 
END IONS

BEGIN IONS
INCHIKEY=SBPBAQFWLVIOKP-UHFFFAOYSA-N
INCHI=InChI=1S/C9H11Cl3NO3PS/c1-3-14-17(18,15-4-2)16-9-7(11)5-6(10)8(12)13-9/h5H,3-4H2,1-2H3
SMILES=CCO[P](=S)(OCC)Oc1nc(Cl)c(Cl)cc1Cl
INSTRUMENT_TYPE=LC-ESI-QTOF
INSTRUMENT=TripleTOF 5600 SCIEX
COLLISION_ENERGY=150
FORMULA=C9H11Cl3NO3PS
PARENT=349.9336
SPLASH=splash10-0a4i-9600000000-ad9a64d510a5af72e51f
NUM_PEAKS=18
COMPOUND_NAME=Chlorpyrifos
SPECTRUM_ID=MSBNK-BAFG-CSL2311107137
ADDUCT=[M+H]+
MS_LEVEL=MS2
PRECURSOR_MZ=349.9336
IONMODE=positive
NOMINAL_MASS=349
PARENT_MASS=348.9263
46.9958 54.0 
61.9844 78.0 
64.982 522.0 
70.9716 62.0 
70.9867 31.0 
71.9791 507.0 
72.985 46.0 
74.0046 70.0 
75.0122 109.0 
78.9415 569.0 
82.9458 54.0 
83.9776 202.0 
96.9507 351.0 
96.9663 46.0 
106.9438 999.0 
108.9709 772.0 
109.9792 70.0 
117.9379 70.0 
END IONS

BEGIN IONS
INCHIKEY=FHIVAFMUCKRCQO-UHFFFAOYSA-N
INCHI=InChI=1S/C12H21N2O3PS/c1-6-15-18(19,16-7-2)17-11-8-10(5)13-12(14-11)9(3)4/h8-9H,6-7H2,1-5H3
SMILES=CCO[P](=S)(OCC)Oc1cc(C)nc(n1)C(C)C
INSTRUMENT_TYPE=LC-ESI-QTOF
INSTRUMENT=TripleTOF 5600 SCIEX
COLLISION_ENERGY=130
FORMULA=C12H21N2O3PS
PARENT=305.1083
SPLASH=splash10-01r2-9000000000-aa59f9889a25b04071f2
NUM_PEAKS=24
COMPOUND_NAME=Diazinon
SPECTRUM_ID=MSBNK-BAFG-CSL2311094546
ADDUCT=[M+H]+
MS_LEVEL=MS2
PRECURSOR_MZ=305.1083
IONMODE=positive
NOMINAL_MASS=304
PARENT_MASS=304.1011
37.0184 12.0 
42.0429 280.0 
46.9769 545.0 
47.0177 11.0 
54.04 75.0 
56.9846 11.0 
57.9916 43.0 
58.9993 58.0 
59.9948 81.0 
62.9499 18.0 
62.9676 322.0 
62.9933 16.0 
64.9835 961.0 
65.0137 19.0 
65.038 11.0 
67.0454 44.0 
70.9974 12.0 
78.9434 999.0 
80.9753 256.0 
82.9969 74.0 
84.0461 19.0 
93.0589 11.0 
96.9516 766.0 
100.0211 21.0 
END IONS

BEGIN IONS
INCHIKEY=YFBPRJGDJKVWAH-UHFFFAOYSA-N
INCHI=InChI=1S/C11H15NO2S/c1-7-5-9(14-11(13)12-3)6-8(2)10(7)15-4/h5-6H,1-4H3,(H,12,13)
SMILES=Cc1cc(cc(c1SC)C)OC(=O)NC
INSTRUMENT_TYPE=LC-ESI-QTOF
INSTRUMENT=TripleTOF 6600 SCIEX
COLLISION_ENERGY=60
FORMULA=C11H15NO2S
PARENT=226.0896
SPLASH=splash10-056r-9400000000-824d5d6db8aebd36b8bd
NUM_PEAKS=21
COMPOUND_NAME=Methiocarb
SPECTRUM_ID=MSBNK-BAFG-CSL23111027292
ADDUCT=[M+H]+
MS_LEVEL=MS2
PRECURSOR_MZ=226.0896
IONMODE=positive
NOMINAL_MASS=225
PARENT_MASS=225.0823
39.0209 21.0 
41.036 11.0 
44.9765 17.0 
50.0123 13.0 
51.0206 129.0 
53.0362 17.0 
65.0357 86.0 
67.051 17.0 
77.0359 999.0 
78.0432 81.0 
79.0512 176.0 
91.0511 391.0 
93.0665 53.0 
103.0515 45.0 
104.059 12.0 
105.0414 23.0 
107.0461 684.0 
111.024 21.0 
121.0616 220.0 
122.07 41.0 
135.0233 11.0 
END IONS

BEGIN IONS
INCHIKEY=QGLZXHRNAYXIBU-UHFFFAOYSA-N
INCHI=InChI=1S/C7H14N2O2S/c1-7(2,12-4)5-9-11-6(10)8-3/h5H,1-4H3,(H,8,10)
SMILES=CC(C)(C=NOC(=O)NC)SC
INSTRUMENT_TYPE=LC-ESI-QTOF
INSTRUMENT=TripleTOF 6600 SCIEX
COLLISION_ENERGY=100
FORMULA=C7H14N2O2S
PARENT=213.0668
SPLASH=splash10-0a4i-9000000000-97722f75455159faf4c4
NUM_PEAKS=8
COMPOUND_NAME=Aldicarb
SPECTRUM_ID=MSBNK-BAFG-CSL23111016279
ADDUCT=[M+Na]+
MS_LEVEL=MS2
PRECURSOR_MZ=213.0668
IONMODE=positive
NOMINAL_MASS=190
PARENT_MASS=190.0776
37.0074 80.0 
38.0155 57.0 
39.0232 271.0 
41.039 57.0 
44.98 132.0 
46.9952 75.0 
57.9877 161.0 
58.9954 999.0 
END IONS

BEGIN IONS
INCHIKEY=OEBRKCOSUFCWJD-UHFFFAOYSA-N
INCHI=InChI=1S/C4H7Cl2O4P/c1-8-11(7,9-2)10-3-4(5)6/h3H,1-2H3
SMILES=CO[P](=O)(OC)OC=C(Cl)Cl
INSTRUMENT_TYPE=LC-ESI-QTOF
INSTRUMENT=TripleTOF 5600 SCIEX
COLLISION_ENERGY=150
FORMULA=C4H7Cl2O4P
PARENT=220.9532
SPLASH=splash10-0a4i-9000000000-1388491a1c0b8119ec2d
NUM_PEAKS=5
COMPOUND_NAME=Dichlorvos
SPECTRUM_ID=MSBNK-BAFG-CSL2311096048
ADDUCT=[M+H]+
MS_LEVEL=MS2
PRECURSOR_MZ=220.9532
IONMODE=positive
NOMINAL_MASS=220
PARENT_MASS=219.9459
46.9739 295.0 
51.0287 158.0 
59.9799 999.0 
59.9984 136.0 
77.0412 113.0 
END IONS

BEGIN IONS
INCHIKEY=RLBIQVVOMOPOHC-UHFFFAOYSA-N
INCHI=InChI=1S/C8H10NO5PS/c1-12-15(16,13-2)14-8-5-3-7(4-6-8)9(10)11/h3-6H,1-2H3
SMILES=COP(=S)(OC)OC1=CC=C(C=C1)[N+](=O)[O-]
INSTRUMENT_TYPE=LC-ESI-QTOF
INSTRUMENT=TripleTOF 6600 SCIEX
COLLISION_ENERGY=90
FORMULA=C8H10NO5PS
PARENT=264.009
SPLASH=splash10-0204-9000000000-2b974a28fdf7265204c4
NUM_PEAKS=21
COMPOUND_NAME=Parathion-methyl
SPECTRUM_ID=MSBNK-BAFG-CSL23111018874
ADDUCT=[M+H]+
MS_LEVEL=MS2
PRECURSOR_MZ=264.009
IONMODE=positive
NOMINAL_MASS=263
PARENT_MASS=263.0017
39.0221 62.0 
44.9781 593.0 
46.9671 359.0 
46.994 312.0 
50.014 483.0 
62.0147 140.0 
62.9434 249.0 
62.9976 93.0 
63.0222 374.0 
65.0374 78.0 
68.9779 359.0 
69.9877 93.0 
73.0069 109.0 
74.0135 671.0 
75.0214 999.0 
76.0289 109.0 
78.9921 171.0 
81.9863 140.0 
93.0098 62.0 
94.994 93.0 
108.0009 265.0 
END IONS

BEGIN IONS
INCHIKEY=RLBIQVVOMOPOHC-UHFFFAOYSA-N
INCHI=InChI=1S/C8H10NO5PS/c1-12-15(16,13-2)14-8-5-3-7(4-6-8)9(10)11/h3-6H,1-2H3
SMILES=COP(=S)(OC)OC1=CC=C(C=C1)[N+](=O)[O-]
INSTRUMENT_TYPE=LC-ESI-QTOF
INSTRUMENT=TripleTOF 6600 SCIEX
COLLISION_ENERGY=20
FORMULA=C8H10NO5PS
PARENT=264.009
SPLASH=splash10-01x0-0490000000-b0d098bd9faf62fb7aab
NUM_PEAKS=18
COMPOUND_NAME=Parathion-methyl
SPECTRUM_ID=MSBNK-BAFG-CSL23111018875
ADDUCT=[M+H]+
MS_LEVEL=MS2
PRECURSOR_MZ=264.009
IONMODE=positive
NOMINAL_MASS=263
PARENT_MASS=263.0017
78.9936 23.0 
109.0036 167.0 
123.0302 104.0 
124.9809 490.0 
127.0147 45.0 
137.9996 19.0 
139.0064 47.0 
141.9836 24.0 
142.9919 12.0 
153.9965 10.0 
185.9881 41.0 
199.9559 35.0 
201.9832 11.0 
214.9781 17.0 
218.0133 29.0 
231.9821 999.0 
249.9918 99.0 
264.0087 730.0 
END IONS

BEGIN IONS
INCHIKEY=DUEPRVBVGDRKAG-UHFFFAOYSA-N
INCHI=InChI=1S/C12H15NO3/c1-12(2)7-8-5-4-6-9(10(8)16-12)15-11(14)13-3/h4-6H,7H2,1-3H3,(H,13,14)
SMILES=CNC(=O)Oc1cccc2CC(C)(C)Oc12
INSTRUMENT_TYPE=LC-ESI-QTOF
INSTRUMENT=TripleTOF 5600 SCIEX
COLLISION_ENERGY=100
FORMULA=C12H15NO3
PARENT=222.1125
SPLASH=splash10-004i-9000000000-895c28197411760e5b1a
NUM_PEAKS=20
COMPOUND_NAME=Carbofuran
SPECTRUM_ID=MSBNK-BAFG-CSL2311095459
ADDUCT=[M+H]+
MS_LEVEL=MS2
PRECURSOR_MZ=222.1125
IONMODE=positive
NOMINAL_MASS=221
PARENT_MASS=221.1052
55.0239 24.0 
55.0599 80.0 
58.0341 303.0 
58.0473 72.0 
63.0506 20.0 
65.0425 489.0 
67.0587 20.0 
74.0172 36.0 
75.0256 48.0 
76.0337 20.0 
77.0414 999.0 
78.0486 113.0 
79.0546 32.0 
81.0364 24.0 
89.0396 60.0 
91.055 182.0 
102.0468 48.0 
103.0538 68.0 
115.053 44.0 
127.0612 20.0 
END IONS

BEGIN IONS
INCHIKEY=YFGYUFNIOHWBOB-UHFFFAOYSA-N
INCHI=InChI=1S/C11H18N4O2/c1-7-8(2)12-10(14(3)4)13-9(7)17-11(16)15(5)6/h1-6H3
SMILES=CC1=C(N=C(N=C1OC(=O)N(C)C)N(C)C)C
INSTRUMENT_TYPE=LC-ESI-QTOF
INSTRUMENT=TripleTOF 6600 SCIEX
COLLISION_ENERGY=60
FORMULA=C11H18N4O2
PARENT=239.1503
SPLASH=splash10-00di-9000000000-ed3b73d6e822b2c8bf1a
NUM_PEAKS=17
COMPOUND_NAME=Pirimicarb
SPECTRUM_ID=MSBNK-BAFG-CSL23111017379
ADDUCT=[M+H]+
MS_LEVEL=MS2
PRECURSOR_MZ=239.1503
IONMODE=positive
NOMINAL_MASS=238
PARENT_MASS=238.143
42.0338 19.0 
44.0494 29.0 
56.013 71.0 
58.0647 16.0 
69.045 20.0 
69.0566 25.0 
70.052 11.0 
71.0598 16.0 
72.0447 999.0 
83.0237 28.0 
85.0756 63.0 
93.0439 11.0 
94.0521 18.0 
109.0753 48.0 
123.0544 14.0 
138.078 12.0 
152.0817 18.0 
END IONS

BEGIN IONS
INCHIKEY=YFGYUFNIOHWBOB-UHFFFAOYSA-N
INCHI=InChI=1S/C11H18N4O2/c1-7-8(2)12-10(14(3)4)13-9(7)17-11(16)15(5)6/h1-6H3
SMILES=CC1=C(N=C(N=C1OC(=O)N(C)C)N(C)C)C
INSTRUMENT_TYPE=LC-ESI-QTOF
INSTRUMENT=TripleTOF 6600 SCIEX
COLLISION_ENERGY=100
FORMULA=C11H18N4O2
PARENT=239.1503
SPLASH=splash10-0avl-9000000000-9927d3c455fc507c606c
NUM_PEAKS=12
COMPOUND_NAME=Pirimicarb
SPECTRUM_ID=MSBNK-BAFG-CSL23111017370
ADDUCT=[M+H]+
MS_LEVEL=MS2
PRECURSOR_MZ=239.1503
IONMODE=positive
NOMINAL_MASS=238
PARENT_MASS=238.143
42.0341 630.0 
44.0496 262.0 
53.0381 157.0 
54.0338 131.0 
55.0289 262.0 
56.0129 972.0 
66.0333 131.0 
68.0491 210.0 
69.0086 105.0 
69.0444 867.0 
70.052 131.0 
72.0444 999.0 
END IONS

BEGIN IONS
INCHIKEY=FHIVAFMUCKRCQO-UHFFFAOYSA-N
INCHI=InChI=1S/C12H21N2O3PS/c1-6-15-18(19,16-7-2)17-11-8-10(5)13-12(14-11)9(3)4/h8-9H,6-7H2,1-5H3
SMILES=CCO[P](=S)(OCC)Oc1cc(C)nc(n1)C(C)C
INSTRUMENT_TYPE=LC-ESI-QTOF
INSTRUMENT=TripleTOF 5600 SCIEX
COLLISION_ENERGY=60
FORMULA=C12H21N2O3PS
PARENT=305.1083
SPLASH=splash10-0f6t-9400000000-6655859c5539d01cc13a
NUM_PEAKS=22
COMPOUND_NAME=Diazinon
SPECTRUM_ID=MSBNK-BAFG-CSL2311094554
ADDUCT=[M+H]+
MS_LEVEL=MS2
PRECURSOR_MZ=305.1083
IONMODE=positive
NOMINAL_MASS=304
PARENT_MASS=304.1011
42.0432 56.0 
58.9998 29.0 
59.9953 12.0 
64.9831 54.0 
67.0458 56.0 
70.0694 143.0 
78.9433 92.0 
80.9765 98.0 
82.9966 26.0 
84.0474 255.0 
90.9956 35.0 
93.0457 14.0 
96.9527 999.0 
100.0229 528.0 
109.0042 12.0 
124.9809 12.0 
135.0903 10.0 
137.0701 10.0 
153.0479 16.0 
153.102 122.0 
154.0543 26.0 
169.079 227.0 
END IONS

BEGIN IONS
INCHIKEY=CVXBEEMKQHEXEN-UHFFFAOYSA-N
INCHI=InChI=1S/C12H11NO2/c1-13-12(14)15-11-8-4-6-9-5-2-3-7-10(9)11/h2-8H,1H3,(H,13,14)
SMILES=CNC(=O)Oc1cccc2ccccc12
INSTRUMENT_TYPE=LC-ESI-QTOF
INSTRUMENT=TripleTOF 5600 SCIEX
COLLISION_ENERGY=50
FORMULA=C12H11NO2
PARENT=202.0863
SPLASH=splash10-00or-2900000000-dc22101dc2a0c3298cac
NUM_PEAKS=14
COMPOUND_NAME=Carbaryl
SPECTRUM_ID=MSBNK-BAFG-CSL2311095490
ADDUCT=[M+H]+
MS_LEVEL=MS2
PRECURSOR_MZ=202.0863
IONMODE=positive
NOMINAL_MASS=201
PARENT_MASS=201.079
58.0343 14.0 
65.0426 13.0 
77.0403 139.0 
91.0552 271.0 
101.0378 40.0 
115.0537 446.0 
116.0616 44.0 
117.0691 195.0 
126.0453 75.0 
127.0537 999.0 
128.0621 12.0 
144.0557 18.0 
145.0626 40.0 
155.0595 32.0 
END IONS

BEGIN IONS
INCHIKEY=YFGYUFNIOHWBOB-UHFFFAOYSA-N
INCHI=InChI=1S/C11H18N4O2/c1-7-8(2)12-10(14(3)4)13-9(7)17-11(16)15(5)6/h1-6H3
SMILES=CC1=C(N=C(N=C1OC(=O)N(C)C)N(C)C)C
INSTRUMENT_TYPE=LC-ESI-QTOF
INSTRUMENT=TripleTOF 6600 SCIEX
COLLISION_ENERGY=30
FORMULA=C11H18N4O2
PARENT=239.1503
SPLASH=splash10-00di-9500000000-e7e5620f1cf66558b68e
NUM_PEAKS=9
COMPOUND_NAME=Pirimicarb
SPECTRUM_ID=MSBNK-BAFG-CSL23111017377
ADDUCT=[M+H]+
MS_LEVEL=MS2
PRECURSOR_MZ=239.1503
IONMODE=positive
NOMINAL_MASS=238
PARENT_MASS=238.143
72.0451 999.0 
85.0763 56.0 
109.0762 30.0 
137.0712 57.0 
138.0788 13.0 
150.1027 31.0 
167.1051 14.0 
182.13 455.0 
195.1602 10.0 
END IONS

BEGIN IONS
INCHIKEY=DUEPRVBVGDRKAG-UHFFFAOYSA-N
INCHI=InChI=1S/C12H15NO3/c1-12(2)7-8-5-4-6-9(10(8)16-12)15-11(14)13-3/h4-6H,7H2,1-3H3,(H,13,14)
SMILES=CNC(=O)Oc1cccc2CC(C)(C)Oc12
INSTRUMENT_TYPE=LC-ESI-QTOF
INSTRUMENT=TripleTOF 5600 SCIEX
COLLISION_ENERGY=60
FORMULA=C12H15NO3
PARENT=222.1125
SPLASH=splash10-00bc-9400000000-843e1fa58ceb04c67d56
NUM_PEAKS=23
COMPOUND_NAME=Carbofuran
SPECTRUM_ID=MSBNK-BAFG-CSL2311095461
ADDUCT=[M+H]+
MS_LEVEL=MS2
PRECURSOR_MZ=222.1125
IONMODE=positive
NOMINAL_MASS=221
PARENT_MASS=221.1052
55.0238 52.0 
55.0592 103.0 
58.0342 119.0 
65.0434 262.0 
67.0585 193.0 
77.0425 999.0 
78.0492 22.0 
79.0573 44.0 
81.037 26.0 
89.0408 11.0 
91.0564 531.0 
95.0506 177.0 
103.0553 63.0 
104.0623 26.0 
105.0342 171.0 
107.0497 29.0 
110.0361 18.0 
115.0542 26.0 
117.0706 20.0 
119.0482 19.0 
123.0448 858.0 
128.0633 18.0 
131.0496 47.0 
END IONS

BEGIN IONS
INCHIKEY=YASYVMFAVPKPKE-UHFFFAOYSA-N
INCHI=InChI=1S/C4H10NO3PS/c1-4(6)5-9(7,8-2)10-3/h1-3H3,(H,5,6,7)
SMILES=CC(=O)NP(=O)(OC)SC
INSTRUMENT_TYPE=LC-ESI-QTOF
INSTRUMENT=TripleTOF 6600 SCIEX
COLLISION_ENERGY=50
FORMULA=C4H10NO3PS
PARENT=184.0192
SPLASH=splash10-0007-9000000000-53d296806cfb0d0231e3
NUM_PEAKS=7
COMPOUND_NAME=Acephate
SPECTRUM_ID=MSBNK-BAFG-CSL23111014580
ADDUCT=[M+H]+
MS_LEVEL=MS2
PRECURSOR_MZ=184.0192
IONMODE=positive
NOMINAL_MASS=183
PARENT_MASS=183.0119
42.0326 285.0 
44.9786 523.0 
46.9934 999.0 
49.0092 999.0 
78.9929 570.0 
94.0031 713.0 
94.988 618.0 
END IONS

BEGIN IONS
INCHIKEY=ATROHALUCMTWTB-WYMLVPIESA-N
INCHI=InChI=1S/C12H15N2O3PS/c1-3-15-18(19,16-4-2)17-14-12(10-13)11-8-6-5-7-9-11/h5-9H,3-4H2,1-2H3/b14-12+
SMILES=CCOP(=S)(OCC)O/N=C(\C#N)/C1=CC=CC=C1
INSTRUMENT_TYPE=LC-ESI-QTOF
INSTRUMENT=TripleTOF 6600 SCIEX
COLLISION_ENERGY=90
FORMULA=C12H15N2O3PS
PARENT=299.0614
SPLASH=splash10-0udi-9000000000-11453a0f1d9b7a0ff8b2
NUM_PEAKS=11
COMPOUND_NAME=Phoxim
SPECTRUM_ID=MSBNK-BAFG-CSL23111017827
ADDUCT=[M+H]+
MS_LEVEL=MS2
PRECURSOR_MZ=299.0614
IONMODE=positive
NOMINAL_MASS=298
PARENT_MASS=298.0541
46.9672 38.0 
49.0065 48.0 
50.0142 244.0 
51.0225 999.0 
64.9775 57.0 
74.0143 12.0 
77.0377 439.0 
78.9387 53.0 
80.9724 16.0 
96.9497 34.0 
105.0432 10.0 
END IONS

BEGIN IONS
INCHIKEY=RLBIQVVOMOPOHC-UHFFFAOYSA-N
INCHI=InChI=1S/C8H10NO5PS/c1-12-15(16,13-2)14-8-5-3-7(4-6-8)9(10)11/h3-6H,1-2H3
SMILES=COP(=S)(OC)OC1=CC=C(C=C1)[N+](=O)[O-]
INSTRUMENT_TYPE=LC-ESI-QTOF
INSTRUMENT=TripleTOF 6600 SCIEX
COLLISION_ENERGY=40
FORMULA=C8H10NO5PS
PARENT=264.009
SPLASH=splash10-0fmi-5900000000-8d187adc8a6a70f7d2c1
NUM_PEAKS=46
COMPOUND_NAME=Parathion-methyl
SPECTRUM_ID=MSBNK-BAFG-CSL23111018871
ADDUCT=[M+H]+
MS_LEVEL=MS2
PRECURSOR_MZ=264.009
IONMODE=positive
NOMINAL_MASS=263
PARENT_MASS=263.0017
44.9792 77.0 
46.967 29.0 
46.9934 224.0 
62.0164 48.0 
62.9442 24.0 
62.9991 24.0 
63.0216 58.0 
64.0295 82.0 
65.0379 34.0 
68.9795 24.0 
69.9862 34.0 
74.0143 38.0 
75.0214 375.0 
76.0294 19.0 
78.9924 575.0 
92.0245 194.0 
93.007 48.0 
96.0016 102.0 
108.0021 77.0 
109.0032 331.0 
110.0161 29.0 
122.0234 38.0 
123.0297 43.0 
123.9953 58.0 
124.9802 999.0 
127.0143 63.0 
137.9839 34.0 
138.9947 24.0 
139.007 24.0 
141.9655 29.0 
142.9996 19.0 
150.0287 58.0 
152.9578 24.0 
153.9615 336.0 
153.9923 24.0 
154.9697 531.0 
155.9754 48.0 
156.9856 29.0 
170.9636 43.0 
183.9781 29.0 
184.9819 63.0 
185.9887 146.0 
199.9553 131.0 
214.9812 53.0 
231.9808 155.0 
249.9899 19.0 
END IONS

BEGIN IONS
INCHIKEY=FHIVAFMUCKRCQO-UHFFFAOYSA-N
INCHI=InChI=1S/C12H21N2O3PS/c1-6-15-18(19,16-7-2)17-11-8-10(5)13-12(14-11)9(3)4/h8-9H,6-7H2,1-5H3
SMILES=CCO[P](=S)(OCC)Oc1cc(C)nc(n1)C(C)C
INSTRUMENT_TYPE=LC-ESI-QTOF
INSTRUMENT=TripleTOF 5600 SCIEX
COLLISION_ENERGY=70
FORMULA=C12H21N2O3PS
PARENT=305.1083
SPLASH=splash10-0002-9200000000-f68ae786f16f39fbcc34
NUM_PEAKS=21
COMPOUND_NAME=Diazinon
SPECTRUM_ID=MSBNK-BAFG-CSL2311094550
ADDUCT=[M+H]+
MS_LEVEL=MS2
PRECURSOR_MZ=305.1083
IONMODE=positive
NOMINAL_MASS=304
PARENT_MASS=304.1011
42.044 77.0 
56.0547 10.0 
59.0004 32.0 
59.9956 18.0 
62.9677 14.0 
64.9838 102.0 
66.0379 10.0 
67.0466 67.0 
70.0696 90.0 
78.9441 166.0 
80.9769 122.0 
82.9975 32.0 
84.0476 155.0 
90.9954 29.0 
96.9534 999.0 
100.0235 315.0 
137.0705 11.0 
153.0487 49.0 
153.1019 31.0 
154.0556 16.0 
169.0797 47.0 
END IONS

BEGIN IONS
INCHIKEY=LCCNCVORNKJIRZ-UHFFFAOYSA-N
INCHI=InChI=1S/C10H14NO5PS/c1-3-14-17(18,15-4-2)16-10-7-5-9(6-8-10)11(12)13/h5-8H,3-4H2,1-2H3
SMILES=CCOP(=S)(OCC)Oc1ccc(cc1)[N+](=O)[O-]
INSTRUMENT_TYPE=LC-ESI-QTOF
INSTRUMENT=TripleTOF 5600 SCIEX
COLLISION_ENERGY=60
FORMULA=C10H14NO5PS
PARENT=292.0403
SPLASH=splash10-0006-9600000000-ff1a9bdb31b574215bda
NUM_PEAKS=26
COMPOUND_NAME=Parathion
SPECTRUM_ID=MSBNK-BAFG-CSL2311093075
ADDUCT=[M+H]+
MS_LEVEL=MS2
PRECURSOR_MZ=292.0403
IONMODE=positive
NOMINAL_MASS=291
PARENT_MASS=291.033
64.9819 48.0 
65.0426 135.0 
66.0499 223.0 
75.026 184.0 
77.0395 48.0 
78.9421 87.0 
81.0361 48.0 
92.0259 48.0 
93.0329 126.0 
94.042 999.0 
96.9509 436.0 
96.9704 48.0 
97.0117 67.0 
100.0064 77.0 
109.0102 145.0 
109.0268 58.0 
110.0189 436.0 
121.0384 48.0 
122.9929 67.0 
123.0304 358.0 
125.0057 106.0 
138.9925 48.0 
154.9702 116.0 
155.9944 77.0 
170.9647 48.0 
171.9752 145.0 
END IONS

BEGIN IONS
INCHIKEY=ATROHALUCMTWTB-WYMLVPIESA-N
INCHI=InChI=1S/C12H15N2O3PS/c1-3-15-18(19,16-4-2)17-14-12(10-13)11-8-6-5-7-9-11/h5-9H,3-4H2,1-2H3/b14-12+
SMILES=CCOP(=S)(OCC)O/N=C(\C#N)/C1=CC=CC=C1
INSTRUMENT_TYPE=LC-ESI-QTOF
INSTRUMENT=TripleTOF 6600 SCIEX
COLLISION_ENERGY=70
FORMULA=C12H15N2O3PS
PARENT=299.0614
SPLASH=splash10-0fb9-9000000000-2a26fee5299645e024b8
NUM_PEAKS=10
COMPOUND_NAME=Phoxim
SPECTRUM_ID=MSBNK-BAFG-CSL23111017834
ADDUCT=[M+H]+
MS_LEVEL=MS2
PRECURSOR_MZ=299.0614
IONMODE=positive
NOMINAL_MASS=298
PARENT_MASS=298.0541
46.9672 18.0 
49.0067 21.0 
50.0144 126.0 
51.0225 632.0 
64.9776 69.0 
77.0382 999.0 
78.9391 58.0 
80.9721 11.0 
96.9498 117.0 
105.0435 27.0 
END IONS

BEGIN IONS
INCHIKEY=CVXBEEMKQHEXEN-UHFFFAOYSA-N
INCHI=InChI=1S/C12H11NO2/c1-13-12(14)15-11-8-4-6-9-5-2-3-7-10(9)11/h2-8H,1H3,(H,13,14)
SMILES=CNC(=O)Oc1cccc2ccccc12
INSTRUMENT_TYPE=LC-ESI-QTOF
INSTRUMENT=TripleTOF 5600 SCIEX
COLLISION_ENERGY=120
FORMULA=C12H11NO2
PARENT=202.0863
SPLASH=splash10-00di-9000000000-fa6d453082f25eac69c8
NUM_PEAKS=13
COMPOUND_NAME=Carbaryl
SPECTRUM_ID=MSBNK-BAFG-CSL2311095494
ADDUCT=[M+H]+
MS_LEVEL=MS2
PRECURSOR_MZ=202.0863
IONMODE=positive
NOMINAL_MASS=201
PARENT_MASS=201.079
51.029 542.0 
65.0422 77.0 
73.0107 137.0 
74.0173 999.0 
75.0255 232.0 
77.0392 77.0 
85.0073 77.0 
86.0164 111.0 
87.0254 60.0 
89.0393 120.0 
97.0067 34.0 
98.0158 120.0 
115.0522 60.0 
END IONS

BEGIN IONS
INCHIKEY=ATROHALUCMTWTB-WYMLVPIESA-N
INCHI=InChI=1S/C12H15N2O3PS/c1-3-15-18(19,16-4-2)17-14-12(10-13)11-8-6-5-7-9-11/h5-9H,3-4H2,1-2H3/b14-12+
SMILES=CCOP(=S)(OCC)O/N=C(\C#N)/C1=CC=CC=C1
INSTRUMENT_TYPE=LC-ESI-QTOF
INSTRUMENT=TripleTOF 6600 SCIEX
COLLISION_ENERGY=60
FORMULA=C12H15N2O3PS
PARENT=299.0614
SPLASH=splash10-004i-9000000000-60772fd2d7cfc38cc7ef
NUM_PEAKS=7
COMPOUND_NAME=Phoxim
SPECTRUM_ID=MSBNK-BAFG-CSL23111017837
ADDUCT=[M+H]+
MS_LEVEL=MS2
PRECURSOR_MZ=299.0614
IONMODE=positive
NOMINAL_MASS=298
PARENT_MASS=298.0541
50.0142 40.0 
51.0223 245.0 
64.978 28.0 
77.0381 999.0 
78.9391 35.0 
96.9497 200.0 
105.0435 24.0 
END IONS

BEGIN IONS
INCHIKEY=LCCNCVORNKJIRZ-UHFFFAOYSA-N
INCHI=InChI=1S/C10H14NO5PS/c1-3-14-17(18,15-4-2)16-10-7-5-9(6-8-10)11(12)13/h5-8H,3-4H2,1-2H3
SMILES=CCOP(=S)(OCC)Oc1ccc(cc1)[N+](=O)[O-]
INSTRUMENT_TYPE=LC-ESI-QTOF
INSTRUMENT=TripleTOF 5600 SCIEX
COLLISION_ENERGY=40
FORMULA=C10H14NO5PS
PARENT=292.0403
SPLASH=splash10-006x-4910000000-dc991548fa42f83f3397
NUM_PEAKS=31
COMPOUND_NAME=Parathion
SPECTRUM_ID=MSBNK-BAFG-CSL2311093078
ADDUCT=[M+H]+
MS_LEVEL=MS2
PRECURSOR_MZ=292.0403
IONMODE=positive
NOMINAL_MASS=291
PARENT_MASS=291.033
75.0266 39.0 
93.0343 71.0 
93.0595 32.0 
94.0423 999.0 
94.087 32.0 
96.9508 541.0 
97.0112 39.0 
100.009 26.0 
109.0088 58.0 
110.0185 672.0 
122.024 45.0 
123.0309 783.0 
125.0048 104.0 
126.0125 52.0 
139.0087 104.0 
139.0308 26.0 
140.0335 444.0 
150.0299 26.0 
153.9941 32.0 
154.9714 58.0 
155.9981 313.0 
156.0109 182.0 
170.9687 39.0 
171.9736 424.0 
184.9872 32.0 
187.9704 45.0 
189.9855 195.0 
201.9879 39.0 
217.9664 215.0 
218.9732 91.0 
235.978 228.0 
END IONS

BEGIN IONS
INCHIKEY=RLBIQVVOMOPOHC-UHFFFAOYSA-N
INCHI=InChI=1S/C8H10NO5PS/c1-12-15(16,13-2)14-8-5-3-7(4-6-8)9(10)11/h3-6H,1-2H3
SMILES=COP(=S)(OC)OC1=CC=C(C=C1)[N+](=O)[O-]
INSTRUMENT_TYPE=LC-ESI-QTOF
INSTRUMENT=TripleTOF 6600 SCIEX
COLLISION_ENERGY=140
FORMULA=C8H10NO5PS
PARENT=264.009
SPLASH=splash10-00di-9000000000-1021e4644ccec5c8c6d4
NUM_PEAKS=14
COMPOUND_NAME=Parathion-methyl
SPECTRUM_ID=MSBNK-BAFG-CSL23111018876
ADDUCT=[M+H]+
MS_LEVEL=MS2
PRECURSOR_MZ=264.009
IONMODE=positive
NOMINAL_MASS=263
PARENT_MASS=263.0017
37.0062 113.0 
38.0143 113.0 
44.978 339.0 
46.9669 339.0 
49.0056 150.0 
50.0134 490.0 
61.0056 113.0 
62.0139 150.0 
62.9442 207.0 
63.0212 75.0 
68.9768 263.0 
73.0052 320.0 
74.013 999.0 
75.0223 94.0 
END IONS

BEGIN IONS
INCHIKEY=RLBIQVVOMOPOHC-UHFFFAOYSA-N
INCHI=InChI=1S/C8H10NO5PS/c1-12-15(16,13-2)14-8-5-3-7(4-6-8)9(10)11/h3-6H,1-2H3
SMILES=COP(=S)(OC)OC1=CC=C(C=C1)[N+](=O)[O-]
INSTRUMENT_TYPE=LC-ESI-QTOF
INSTRUMENT=TripleTOF 6600 SCIEX
COLLISION_ENERGY=110
FORMULA=C8H10NO5PS
PARENT=264.009
SPLASH=splash10-0229-9000000000-8b9ad5bb4a8e3e8aaae7
NUM_PEAKS=14
COMPOUND_NAME=Parathion-methyl
SPECTRUM_ID=MSBNK-BAFG-CSL23111018882
ADDUCT=[M+H]+
MS_LEVEL=MS2
PRECURSOR_MZ=264.009
IONMODE=positive
NOMINAL_MASS=263
PARENT_MASS=263.0017
44.9779 462.0 
46.9669 328.0 
46.9939 149.0 
49.0059 89.0 
50.0141 447.0 
62.0128 164.0 
62.9437 208.0 
63.0212 238.0 
68.9779 298.0 
73.0067 119.0 
74.0134 999.0 
75.0209 238.0 
81.9854 89.0 
108.0004 134.0 
END IONS

BEGIN IONS
INCHIKEY=FHIVAFMUCKRCQO-UHFFFAOYSA-N
INCHI=InChI=1S/C12H21N2O3PS/c1-6-15-18(19,16-7-2)17-11-8-10(5)13-12(14-11)9(3)4/h8-9H,6-7H2,1-5H3
SMILES=CCO[P](=S)(OCC)Oc1cc(C)nc(n1)C(C)C
INSTRUMENT_TYPE=LC-ESI-QTOF
INSTRUMENT=TripleTOF 5600 SCIEX
COLLISION_ENERGY=20
FORMULA=C12H21N2O3PS
PARENT=305.1083
SPLASH=splash10-0pvi-0906000000-a91c6f9a21f1df1375ba
NUM_PEAKS=9
COMPOUND_NAME=Diazinon
SPECTRUM_ID=MSBNK-BAFG-CSL2311094557
ADDUCT=[M+H]+
MS_LEVEL=MS2
PRECURSOR_MZ=305.1083
IONMODE=positive
NOMINAL_MASS=304
PARENT_MASS=304.1011
96.9522 34.0 
124.9824 47.0 
153.014 13.0 
153.1029 516.0 
169.0797 718.0 
181.1334 32.0 
249.0461 41.0 
277.0772 80.0 
305.1083 999.0 
END IONS

BEGIN IONS
INCHIKEY=DUEPRVBVGDRKAG-UHFFFAOYSA-N
INCHI=InChI=1S/C12H15NO3/c1-12(2)7-8-5-4-6-9(10(8)16-12)15-11(14)13-3/h4-6H,7H2,1-3H3,(H,13,14)
SMILES=CNC(=O)Oc1cccc2CC(C)(C)Oc12
INSTRUMENT_TYPE=LC-ESI-QTOF
INSTRUMENT=TripleTOF 5600 SCIEX
COLLISION_ENERGY=70
FORMULA=C12H15NO3
PARENT=222.1125
SPLASH=splash10-004i-9200000000-d93557148f7e55140e73
NUM_PEAKS=19
COMPOUND_NAME=Carbofuran
SPECTRUM_ID=MSBNK-BAFG-CSL2311095455
ADDUCT=[M+H]+
MS_LEVEL=MS2
PRECURSOR_MZ=222.1125
IONMODE=positive
NOMINAL_MASS=221
PARENT_MASS=221.1052
55.0232 47.0 
58.0345 140.0 
65.0431 292.0 
67.0585 132.0 
77.0425 999.0 
78.0484 51.0 
79.0562 39.0 
81.0359 23.0 
89.0391 18.0 
91.0561 416.0 
95.0501 70.0 
102.0477 10.0 
103.0542 97.0 
104.063 15.0 
105.034 100.0 
107.0483 22.0 
115.0551 28.0 
123.0442 273.0 
131.0499 36.0 
END IONS

BEGIN IONS
INCHIKEY=JXSJBGJIGXNWCI-UHFFFAOYSA-N
INCHI=InChI=1S/C10H19O6PS2/c1-5-15-9(11)7-8(10(12)16-6-2)19-17(18,13-3)14-4/h8H,5-7H2,1-4H3
SMILES=CCOC(=O)CC(C(=O)OCC)SP(=S)(OC)OC
INSTRUMENT_TYPE=LC-ESI-QTOF
INSTRUMENT=TripleTOF 5600 SCIEX
COLLISION_ENERGY=10
FORMULA=C10H19O6PS2
PARENT=331.0433
SPLASH=splash10-000i-0390000000-c38335a1438acee5ea1e
NUM_PEAKS=6
COMPOUND_NAME=Malathion
SPECTRUM_ID=MSBNK-BAFG-CSL23111010797
ADDUCT=[M+H]+
MS_LEVEL=MS2
PRECURSOR_MZ=331.0433
IONMODE=positive
NOMINAL_MASS=330
PARENT_MASS=330.0361
99.0077 24.0 
127.0386 313.0 
158.9682 16.0 
189.0559 19.0 
257.0054 19.0 
285.0019 999.0 
END IONS

BEGIN IONS
INCHIKEY=ATROHALUCMTWTB-WYMLVPIESA-N
INCHI=InChI=1S/C12H15N2O3PS/c1-3-15-18(19,16-4-2)17-14-12(10-13)11-8-6-5-7-9-11/h5-9H,3-4H2,1-2H3/b14-12+
SMILES=CCOP(=S)(OCC)O/N=C(\C#N)/C1=CC=CC=C1
INSTRUMENT_TYPE=LC-ESI-QTOF
INSTRUMENT=TripleTOF 6600 SCIEX
COLLISION_ENERGY=140
FORMULA=C12H15N2O3PS
PARENT=299.0614
SPLASH=splash10-0udi-9000000000-74c353d8729475385995
NUM_PEAKS=9
COMPOUND_NAME=Phoxim
SPECTRUM_ID=MSBNK-BAFG-CSL23111017841
ADDUCT=[M+H]+
MS_LEVEL=MS2
PRECURSOR_MZ=299.0614
IONMODE=positive
NOMINAL_MASS=298
PARENT_MASS=298.0541
46.9671 116.0 
49.0064 228.0 
50.0144 999.0 
51.0222 875.0 
62.9624 39.0 
64.9774 14.0 
74.0138 58.0 
77.0368 29.0 
78.9389 18.0 
END IONS

BEGIN IONS
INCHIKEY=DUEPRVBVGDRKAG-UHFFFAOYSA-N
INCHI=InChI=1S/C12H15NO3/c1-12(2)7-8-5-4-6-9(10(8)16-12)15-11(14)13-3/h4-6H,7H2,1-3H3,(H,13,14)
SMILES=CNC(=O)Oc1cccc2CC(C)(C)Oc12
INSTRUMENT_TYPE=LC-ESI-QTOF
INSTRUMENT=TripleTOF 5600 SCIEX
COLLISION_ENERGY=150
FORMULA=C12H15NO3
PARENT=222.1125
SPLASH=splash10-00fr-9000000000-27ea47eda0f92f2dadb6
NUM_PEAKS=9
COMPOUND_NAME=Carbofuran
SPECTRUM_ID=MSBNK-BAFG-CSL2311095468
ADDUCT=[M+H]+
MS_LEVEL=MS2
PRECURSOR_MZ=222.1125
IONMODE=positive
NOMINAL_MASS=221
PARENT_MASS=221.1052
43.0289 111.0 
58.0339 333.0 
65.042 177.0 
73.0104 133.0 
74.0185 999.0 
75.026 111.0 
77.0412 421.0 
77.061 111.0 
86.0157 111.0 
END IONS

BEGIN IONS
INCHIKEY=RLBIQVVOMOPOHC-UHFFFAOYSA-N
INCHI=InChI=1S/C8H10NO5PS/c1-12-15(16,13-2)14-8-5-3-7(4-6-8)9(10)11/h3-6H,1-2H3
SMILES=COP(=S)(OC)OC1=CC=C(C=C1)[N+](=O)[O-]
INSTRUMENT_TYPE=LC-ESI-QTOF
INSTRUMENT=TripleTOF 6600 SCIEX
COLLISION_ENERGY=100
FORMULA=C8H10NO5PS
PARENT=264.009
SPLASH=splash10-00di-9000000000-76e0e5e807ad4d920526
NUM_PEAKS=14
COMPOUND_NAME=Parathion-methyl
SPECTRUM_ID=MSBNK-BAFG-CSL23111018879
ADDUCT=[M+H]+
MS_LEVEL=MS2
PRECURSOR_MZ=264.009
IONMODE=positive
NOMINAL_MASS=263
PARENT_MASS=263.0017
44.978 565.0 
46.9677 245.0 
46.9933 188.0 
49.0072 75.0 
50.0137 245.0 
62.0135 131.0 
62.943 245.0 
63.0221 320.0 
68.9783 358.0 
73.0064 169.0 
74.0134 999.0 
75.0213 452.0 
81.985 131.0 
108.0005 150.0 
END IONS

BEGIN IONS
INCHIKEY=RLBIQVVOMOPOHC-UHFFFAOYSA-N
INCHI=InChI=1S/C8H10NO5PS/c1-12-15(16,13-2)14-8-5-3-7(4-6-8)9(10)11/h3-6H,1-2H3
SMILES=COP(=S)(OC)OC1=CC=C(C=C1)[N+](=O)[O-]
INSTRUMENT_TYPE=LC-ESI-QTOF
INSTRUMENT=TripleTOF 6600 SCIEX
COLLISION_ENERGY=150
FORMULA=C8H10NO5PS
PARENT=264.009
SPLASH=splash10-00di-9000000000-4478c284bb5d495bca01
NUM_PEAKS=12
COMPOUND_NAME=Parathion-methyl
SPECTRUM_ID=MSBNK-BAFG-CSL23111018872
ADDUCT=[M+H]+
MS_LEVEL=MS2
PRECURSOR_MZ=264.009
IONMODE=positive
NOMINAL_MASS=263
PARENT_MASS=263.0017
37.0055 170.0 
38.0137 121.0 
44.9779 487.0 
46.9666 341.0 
49.0063 341.0 
50.0143 560.0 
62.0143 121.0 
62.9432 316.0 
63.0223 170.0 
68.9783 341.0 
73.0057 414.0 
74.0136 999.0 
END IONS

BEGIN IONS
INCHIKEY=QGLZXHRNAYXIBU-UHFFFAOYSA-N
INCHI=InChI=1S/C7H14N2O2S/c1-7(2,12-4)5-9-11-6(10)8-3/h5H,1-4H3,(H,8,10)
SMILES=CC(C)(C=NOC(=O)NC)SC
INSTRUMENT_TYPE=LC-ESI-QTOF
INSTRUMENT=TripleTOF 6600 SCIEX
COLLISION_ENERGY=150
FORMULA=C7H14N2O2S
PARENT=213.0668
SPLASH=splash10-0a4i-9000000000-d0631bff4eaab129fdc9
NUM_PEAKS=9
COMPOUND_NAME=Aldicarb
SPECTRUM_ID=MSBNK-BAFG-CSL23111016271
ADDUCT=[M+Na]+
MS_LEVEL=MS2
PRECURSOR_MZ=213.0668
IONMODE=positive
NOMINAL_MASS=190
PARENT_MASS=190.0776
36.0002 57.0 
37.0077 142.0 
38.0154 114.0 
39.0236 214.0 
44.9797 328.0 
45.9755 71.0 
46.9955 99.0 
57.9874 385.0 
58.9956 999.0 
END IONS

BEGIN IONS
INCHIKEY=OEBRKCOSUFCWJD-UHFFFAOYSA-N
INCHI=InChI=1S/C4H7Cl2O4P/c1-8-11(7,9-2)10-3-4(5)6/h3H,1-2H3
SMILES=CO[P](=O)(OC)OC=C(Cl)Cl
INSTRUMENT_TYPE=LC-ESI-QTOF
INSTRUMENT=TripleTOF 5600 SCIEX
COLLISION_ENERGY=40
FORMULA=C4H7Cl2O4P
PARENT=220.9532
SPLASH=splash10-0a6r-8900000000-7be3bc4d6dfd77667e0f
NUM_PEAKS=21
COMPOUND_NAME=Dichlorvos
SPECTRUM_ID=MSBNK-BAFG-CSL2311096043
ADDUCT=[M+H]+
MS_LEVEL=MS2
PRECURSOR_MZ=220.9532
IONMODE=positive
NOMINAL_MASS=220
PARENT_MASS=219.9459
55.0582 78.0 
59.9794 46.0 
65.0407 11.0 
77.0405 121.0 
78.9962 277.0 
79.0561 83.0 
82.947 14.0 
91.0549 159.0 
92.9765 17.0 
94.9455 176.0 
94.9879 57.0 
95.0532 11.0 
96.9607 49.0 
107.0501 14.0 
109.0045 999.0 
112.953 26.0 
115.053 17.0 
123.0425 14.0 
127.0146 118.0 
144.9786 26.0 
220.9535 37.0 
END IONS

BEGIN IONS
INCHIKEY=QGLZXHRNAYXIBU-UHFFFAOYSA-N
INCHI=InChI=1S/C7H14N2O2S/c1-7(2,12-4)5-9-11-6(10)8-3/h5H,1-4H3,(H,8,10)
SMILES=CC(C)(C=NOC(=O)NC)SC
INSTRUMENT_TYPE=LC-ESI-QTOF
INSTRUMENT=TripleTOF 6600 SCIEX
COLLISION_ENERGY=50
FORMULA=C7H14N2O2S
PARENT=213.0668
SPLASH=splash10-000l-9000000000-578130f957fca5249041
NUM_PEAKS=11
COMPOUND_NAME=Aldicarb
SPECTRUM_ID=MSBNK-BAFG-CSL23111016276
ADDUCT=[M+Na]+
MS_LEVEL=MS2
PRECURSOR_MZ=213.0668
IONMODE=positive
NOMINAL_MASS=190
PARENT_MASS=190.0776
37.0079 105.0 
38.0155 73.0 
39.0234 609.0 
41.0391 804.0 
44.9798 146.0 
46.9952 292.0 
58.9952 527.0 
70.0652 56.0 
74.0195 194.0 
89.0424 999.0 
100.0219 243.0 
END IONS

BEGIN IONS
INCHIKEY=YFGYUFNIOHWBOB-UHFFFAOYSA-N
INCHI=InChI=1S/C11H18N4O2/c1-7-8(2)12-10(14(3)4)13-9(7)17-11(16)15(5)6/h1-6H3
SMILES=CC1=C(N=C(N=C1OC(=O)N(C)C)N(C)C)C
INSTRUMENT_TYPE=LC-ESI-QTOF
INSTRUMENT=TripleTOF 6600 SCIEX
COLLISION_ENERGY=130
FORMULA=C11H18N4O2
PARENT=239.1503
SPLASH=splash10-052f-9000000000-39c2582bc179f08db4f4
NUM_PEAKS=5
COMPOUND_NAME=Pirimicarb
SPECTRUM_ID=MSBNK-BAFG-CSL23111017369
ADDUCT=[M+H]+
MS_LEVEL=MS2
PRECURSOR_MZ=239.1503
IONMODE=positive
NOMINAL_MASS=238
PARENT_MASS=238.143
42.0339 999.0 
54.0337 222.0 
56.0128 832.0 
69.0446 444.0 
72.0434 277.0 
END IONS

BEGIN IONS
INCHIKEY=QGLZXHRNAYXIBU-UHFFFAOYSA-N
INCHI=InChI=1S/C7H14N2O2S/c1-7(2,12-4)5-9-11-6(10)8-3/h5H,1-4H3,(H,8,10)
SMILES=CC(C)(C=NOC(=O)NC)SC
INSTRUMENT_TYPE=LC-ESI-QTOF
INSTRUMENT=TripleTOF 6600 SCIEX
COLLISION_ENERGY=40
FORMULA=C7H14N2O2S
PARENT=213.0668
SPLASH=splash10-000i-9000000000-b213ffa8aea82e7aa374
NUM_PEAKS=7
COMPOUND_NAME=Aldicarb
SPECTRUM_ID=MSBNK-BAFG-CSL23111016281
ADDUCT=[M+Na]+
MS_LEVEL=MS2
PRECURSOR_MZ=213.0668
IONMODE=positive
NOMINAL_MASS=190
PARENT_MASS=190.0776
39.0235 121.0 
41.0392 197.0 
46.9954 57.0 
58.9957 70.0 
70.0657 92.0 
89.0427 999.0 
100.0224 51.0 
END IONS

BEGIN IONS
INCHIKEY=YFBPRJGDJKVWAH-UHFFFAOYSA-N
INCHI=InChI=1S/C11H15NO2S/c1-7-5-9(14-11(13)12-3)6-8(2)10(7)15-4/h5-6H,1-4H3,(H,12,13)
SMILES=Cc1cc(cc(c1SC)C)OC(=O)NC
INSTRUMENT_TYPE=LC-ESI-QTOF
INSTRUMENT=TripleTOF 6600 SCIEX
COLLISION_ENERGY=130
FORMULA=C11H15NO2S
PARENT=226.0896
SPLASH=splash10-0udr-9000000000-72b46466b06ee3340c72
NUM_PEAKS=24
COMPOUND_NAME=Methiocarb
SPECTRUM_ID=MSBNK-BAFG-CSL23111027299
ADDUCT=[M+H]+
MS_LEVEL=MS2
PRECURSOR_MZ=226.0896
IONMODE=positive
NOMINAL_MASS=225
PARENT_MASS=225.0823
35.9968 70.0 
37.0051 238.0 
38.0132 174.0 
39.0212 554.0 
41.0367 32.0 
43.9692 32.0 
44.977 186.0 
49.0048 135.0 
50.0128 786.0 
51.0207 999.0 
52.0275 38.0 
58.9927 38.0 
61.0045 83.0 
62.012 122.0 
63.0203 135.0 
65.036 128.0 
67.9682 45.0 
68.9769 135.0 
73.0056 38.0 
74.0129 103.0 
77.0353 212.0 
78.0431 25.0 
89.0362 45.0 
91.0517 58.0 
END IONS

BEGIN IONS
INCHIKEY=ATROHALUCMTWTB-WYMLVPIESA-N
INCHI=InChI=1S/C12H15N2O3PS/c1-3-15-18(19,16-4-2)17-14-12(10-13)11-8-6-5-7-9-11/h5-9H,3-4H2,1-2H3/b14-12+
SMILES=CCOP(=S)(OCC)O/N=C(\C#N)/C1=CC=CC=C1
INSTRUMENT_TYPE=LC-ESI-QTOF
INSTRUMENT=TripleTOF 6600 SCIEX
COLLISION_ENERGY=20
FORMULA=C12H15N2O3PS
PARENT=299.0614
SPLASH=splash10-004i-4900000000-69a0eef027f42e4cbeac
NUM_PEAKS=6
COMPOUND_NAME=Phoxim
SPECTRUM_ID=MSBNK-BAFG-CSL23111017828
ADDUCT=[M+H]+
MS_LEVEL=MS2
PRECURSOR_MZ=299.0614
IONMODE=positive
NOMINAL_MASS=298
PARENT_MASS=298.0541
77.0379 292.0 
96.9501 437.0 
105.0433 16.0 
124.9811 284.0 
129.0443 999.0 
153.0119 25.0 
END IONS

BEGIN IONS
INCHIKEY=YFGYUFNIOHWBOB-UHFFFAOYSA-N
INCHI=InChI=1S/C11H18N4O2/c1-7-8(2)12-10(14(3)4)13-9(7)17-11(16)15(5)6/h1-6H3
SMILES=CC1=C(N=C(N=C1OC(=O)N(C)C)N(C)C)C
INSTRUMENT_TYPE=LC-ESI-QTOF
INSTRUMENT=TripleTOF 6600 SCIEX
COLLISION_ENERGY=90
FORMULA=C11H18N4O2
PARENT=239.1503
SPLASH=splash10-05fu-9000000000-b9a41c5aab132129b4dc
NUM_PEAKS=17
COMPOUND_NAME=Pirimicarb
SPECTRUM_ID=MSBNK-BAFG-CSL23111017371
ADDUCT=[M+H]+
MS_LEVEL=MS2
PRECURSOR_MZ=239.1503
IONMODE=positive
NOMINAL_MASS=238
PARENT_MASS=238.143
39.0229 38.0 
42.0337 290.0 
44.0496 116.0 
53.0386 58.0 
54.0333 77.0 
55.0284 87.0 
56.0129 572.0 
58.0649 77.0 
66.0342 38.0 
68.0495 67.0 
69.0081 77.0 
69.0442 368.0 
70.0517 77.0 
71.0601 48.0 
72.0441 999.0 
85.0769 48.0 
93.0438 126.0 
END IONS

BEGIN IONS
INCHIKEY=DUEPRVBVGDRKAG-UHFFFAOYSA-N
INCHI=InChI=1S/C12H15NO3/c1-12(2)7-8-5-4-6-9(10(8)16-12)15-11(14)13-3/h4-6H,7H2,1-3H3,(H,13,14)
SMILES=CNC(=O)Oc1cccc2CC(C)(C)Oc12
INSTRUMENT_TYPE=LC-ESI-QTOF
INSTRUMENT=TripleTOF 5600 SCIEX
COLLISION_ENERGY=40
FORMULA=C12H15NO3
PARENT=222.1125
SPLASH=splash10-00di-2900000000-98b0ecfcaca95cc9e308
NUM_PEAKS=14
COMPOUND_NAME=Carbofuran
SPECTRUM_ID=MSBNK-BAFG-CSL2311095466
ADDUCT=[M+H]+
MS_LEVEL=MS2
PRECURSOR_MZ=222.1125
IONMODE=positive
NOMINAL_MASS=221
PARENT_MASS=221.1052
58.0339 18.0 
65.0432 14.0 
67.0591 37.0 
77.0421 84.0 
91.0567 124.0 
95.051 73.0 
105.0344 32.0 
107.0491 10.0 
119.0494 16.0 
119.0856 29.0 
123.0451 999.0 
137.0597 50.0 
147.0803 12.0 
165.091 15.0 
END IONS

BEGIN IONS
INCHIKEY=DUEPRVBVGDRKAG-UHFFFAOYSA-N
INCHI=InChI=1S/C12H15NO3/c1-12(2)7-8-5-4-6-9(10(8)16-12)15-11(14)13-3/h4-6H,7H2,1-3H3,(H,13,14)
SMILES=CNC(=O)Oc1cccc2CC(C)(C)Oc12
INSTRUMENT_TYPE=LC-ESI-QTOF
INSTRUMENT=TripleTOF 5600 SCIEX
COLLISION_ENERGY=80
FORMULA=C12H15NO3
PARENT=222.1125
SPLASH=splash10-004i-9100000000-7bee93902993c5a2ff53
NUM_PEAKS=27
COMPOUND_NAME=Carbofuran
SPECTRUM_ID=MSBNK-BAFG-CSL2311095463
ADDUCT=[M+H]+
MS_LEVEL=MS2
PRECURSOR_MZ=222.1125
IONMODE=positive
NOMINAL_MASS=221
PARENT_MASS=221.1052
53.0443 19.0 
55.0226 50.0 
55.0598 77.0 
58.0339 195.0 
63.0373 13.0 
64.0345 13.0 
65.043 418.0 
67.0575 91.0 
75.0265 12.0 
77.0416 999.0 
78.0492 72.0 
79.0576 34.0 
81.0359 20.0 
89.0405 36.0 
91.0554 354.0 
95.0515 29.0 
102.0464 24.0 
103.0539 124.0 
104.0612 10.0 
105.0326 43.0 
107.0484 13.0 
110.0363 12.0 
115.0539 38.0 
123.0444 76.0 
127.0526 12.0 
128.0617 17.0 
131.0489 38.0 
END IONS

BEGIN IONS
INCHIKEY=DUEPRVBVGDRKAG-UHFFFAOYSA-N
INCHI=InChI=1S/C12H15NO3/c1-12(2)7-8-5-4-6-9(10(8)16-12)15-11(14)13-3/h4-6H,7H2,1-3H3,(H,13,14)
SMILES=CNC(=O)Oc1cccc2CC(C)(C)Oc12
INSTRUMENT_TYPE=LC-ESI-QTOF
INSTRUMENT=TripleTOF 5600 SCIEX
COLLISION_ENERGY=90
FORMULA=C12H15NO3
PARENT=222.1125
SPLASH=splash10-004i-9100000000-a263e191ad3ceaf59bc8
NUM_PEAKS=25
COMPOUND_NAME=Carbofuran
SPECTRUM_ID=MSBNK-BAFG-CSL2311095457
ADDUCT=[M+H]+
MS_LEVEL=MS2
PRECURSOR_MZ=222.1125
IONMODE=positive
NOMINAL_MASS=221
PARENT_MASS=221.1052
55.0225 21.0 
55.0601 56.0 
58.0345 314.0 
64.0354 18.0 
65.0432 444.0 
67.0582 32.0 
74.0192 18.0 
75.0265 27.0 
77.0414 999.0 
78.0487 94.0 
78.0641 13.0 
79.0556 21.0 
81.0372 18.0 
89.0404 62.0 
91.0555 243.0 
95.0494 16.0 
102.0478 35.0 
103.0543 143.0 
105.0329 32.0 
107.0525 16.0 
115.0542 51.0 
123.0429 21.0 
127.0593 16.0 
128.063 16.0 
131.0493 24.0 
END IONS

BEGIN IONS
INCHIKEY=SBPBAQFWLVIOKP-UHFFFAOYSA-N
INCHI=InChI=1S/C9H11Cl3NO3PS/c1-3-14-17(18,15-4-2)16-9-7(11)5-6(10)8(12)13-9/h5H,3-4H2,1-2H3
SMILES=CCO[P](=S)(OCC)Oc1nc(Cl)c(Cl)cc1Cl
INSTRUMENT_TYPE=LC-ESI-QTOF
INSTRUMENT=TripleTOF 5600 SCIEX
COLLISION_ENERGY=10
FORMULA=C9H11Cl3NO3PS
PARENT=349.9336
SPLASH=splash10-0002-0009000000-440843a5cb06f6b9b9f8
NUM_PEAKS=4
COMPOUND_NAME=Chlorpyrifos
SPECTRUM_ID=MSBNK-BAFG-CSL2311107150
ADDUCT=[M+H]+
MS_LEVEL=MS2
PRECURSOR_MZ=349.9336
IONMODE=positive
NOMINAL_MASS=349
PARENT_MASS=348.9263
153.0132 13.0 
197.9266 25.0 
321.902 69.0 
349.933 999.0 
END IONS

BEGIN IONS
INCHIKEY=JXSJBGJIGXNWCI-UHFFFAOYSA-N
INCHI=InChI=1S/C10H19O6PS2/c1-5-15-9(11)7-8(10(12)16-6-2)19-17(18,13-3)14-4/h8H,5-7H2,1-4H3
SMILES=CCOC(=O)CC(C(=O)OCC)SP(=S)(OC)OC
INSTRUMENT_TYPE=LC-ESI-QTOF
INSTRUMENT=TripleTOF 5600 SCIEX
COLLISION_ENERGY=30
FORMULA=C10H19O6PS2
PARENT=331.0433
SPLASH=splash10-0002-9710000000-ff7efbba22da31fb6b3d
NUM_PEAKS=17
COMPOUND_NAME=Malathion
SPECTRUM_ID=MSBNK-BAFG-CSL23111010795
ADDUCT=[M+H]+
MS_LEVEL=MS2
PRECURSOR_MZ=331.0433
IONMODE=positive
NOMINAL_MASS=330
PARENT_MASS=330.0361
71.0131 22.0 
78.9949 20.0 
86.9898 20.0 
98.9852 22.0 
99.0077 999.0 
99.043 24.0 
108.0453 11.0 
110.9672 13.0 
114.9851 24.0 
117.0003 18.0 
118.9615 11.0 
124.9818 467.0 
127.0393 361.0 
146.9932 31.0 
158.9696 15.0 
210.9652 122.0 
257.0031 31.0 
END IONS

BEGIN IONS
INCHIKEY=YASYVMFAVPKPKE-UHFFFAOYSA-N
INCHI=InChI=1S/C4H10NO3PS/c1-4(6)5-9(7,8-2)10-3/h1-3H3,(H,5,6,7)
SMILES=CC(=O)NP(=O)(OC)SC
INSTRUMENT_TYPE=LC-ESI-QTOF
INSTRUMENT=TripleTOF 6600 SCIEX
COLLISION_ENERGY=30
FORMULA=C4H10NO3PS
PARENT=184.0192
SPLASH=splash10-0006-9400000000-2a6c5c559f890d3a59b9
NUM_PEAKS=12
COMPOUND_NAME=Acephate
SPECTRUM_ID=MSBNK-BAFG-CSL23111014569
ADDUCT=[M+H]+
MS_LEVEL=MS2
PRECURSOR_MZ=184.0192
IONMODE=positive
NOMINAL_MASS=183
PARENT_MASS=183.0119
42.0323 160.0 
46.9935 98.0 
49.0092 802.0 
78.9942 71.0 
94.0025 240.0 
94.9874 999.0 
97.9669 53.0 
98.9682 71.0 
110.9642 240.0 
124.9616 44.0 
124.9797 624.0 
142.9901 410.0 
END IONS

BEGIN IONS
INCHIKEY=RLBIQVVOMOPOHC-UHFFFAOYSA-N
INCHI=InChI=1S/C8H10NO5PS/c1-12-15(16,13-2)14-8-5-3-7(4-6-8)9(10)11/h3-6H,1-2H3
SMILES=COP(=S)(OC)OC1=CC=C(C=C1)[N+](=O)[O-]
INSTRUMENT_TYPE=LC-ESI-QTOF
INSTRUMENT=TripleTOF 6600 SCIEX
COLLISION_ENERGY=60
FORMULA=C8H10NO5PS
PARENT=264.009
SPLASH=splash10-004i-9300000000-79286f75e00f587a24d2
NUM_PEAKS=33
COMPOUND_NAME=Parathion-methyl
SPECTRUM_ID=MSBNK-BAFG-CSL23111018880
ADDUCT=[M+H]+
MS_LEVEL=MS2
PRECURSOR_MZ=264.009
IONMODE=positive
NOMINAL_MASS=263
PARENT_MASS=263.0017
44.9785 296.0 
46.9674 203.0 
46.9937 462.0 
50.0132 83.0 
62.016 64.0 
62.9443 111.0 
63.0213 277.0 
64.029 120.0 
65.0393 55.0 
68.9773 129.0 
69.9862 74.0 
74.0135 203.0 
75.0217 999.0 
76.0295 166.0 
77.037 55.0 
78.993 545.0 
81.9854 83.0 
83.0026 46.0 
92.0231 83.0 
93.0086 83.0 
94.9922 46.0 
96.0013 64.0 
108.0008 175.0 
109.0037 120.0 
109.9918 55.0 
124.9807 185.0 
125.0163 46.0 
125.9687 111.0 
126.9754 46.0 
138.9944 46.0 
152.9535 37.0 
153.9615 240.0 
154.9692 397.0 
END IONS

BEGIN IONS
INCHIKEY=NFACJZMKEDPNKN-UHFFFAOYSA-N
INCHI=InChI=1S/C4H8Cl3O4P/c1-10-12(9,11-2)3(8)4(5,6)7/h3,8H,1-2H3
SMILES=COP(=O)(C(C(Cl)(Cl)Cl)O)OC
INSTRUMENT_TYPE=LC-ESI-QTOF
INSTRUMENT=TripleTOF 6600 SCIEX
COLLISION_ENERGY=40
FORMULA=C4H8Cl3O4P
PARENT=256.9299
SPLASH=splash10-0a4i-6900000000-471df28b453ba42f28ca
NUM_PEAKS=12
COMPOUND_NAME=Trichlorfon
SPECTRUM_ID=MSBNK-BAFG-CSL23111014336
ADDUCT=[M+H]+
MS_LEVEL=MS2
PRECURSOR_MZ=256.9299
IONMODE=positive
NOMINAL_MASS=256
PARENT_MASS=255.9226
46.9674 54.0 
48.9834 13.0 
62.9985 31.0 
78.9935 399.0 
82.9437 153.0 
92.9722 19.0 
93.0091 50.0 
96.9582 15.0 
109.0042 999.0 
110.9387 25.0 
112.9546 11.0 
127.0141 56.0 
END IONS

BEGIN IONS
INCHIKEY=YASYVMFAVPKPKE-UHFFFAOYSA-N
INCHI=InChI=1S/C4H10NO3PS/c1-4(6)5-9(7,8-2)10-3/h1-3H3,(H,5,6,7)
SMILES=CC(=O)NP(=O)(OC)SC
INSTRUMENT_TYPE=LC-ESI-QTOF
INSTRUMENT=TripleTOF 6600 SCIEX
COLLISION_ENERGY=80
FORMULA=C4H10NO3PS
PARENT=184.0192
SPLASH=splash10-0002-9000000000-b9ccabf84fa02f738573
NUM_PEAKS=4
COMPOUND_NAME=Acephate
SPECTRUM_ID=MSBNK-BAFG-CSL23111014571
ADDUCT=[M+H]+
MS_LEVEL=MS2
PRECURSOR_MZ=184.0192
IONMODE=positive
NOMINAL_MASS=183
PARENT_MASS=183.0119
44.9779 646.0 
46.9668 999.0 
46.994 352.0 
64.9768 293.0 
END IONS

BEGIN IONS
INCHIKEY=ATROHALUCMTWTB-WYMLVPIESA-N
INCHI=InChI=1S/C12H15N2O3PS/c1-3-15-18(19,16-4-2)17-14-12(10-13)11-8-6-5-7-9-11/h5-9H,3-4H2,1-2H3/b14-12+
SMILES=CCOP(=S)(OCC)O/N=C(\C#N)/C1=CC=CC=C1
INSTRUMENT_TYPE=LC-ESI-QTOF
INSTRUMENT=TripleTOF 6600 SCIEX
COLLISION_ENERGY=80
FORMULA=C12H15N2O3PS
PARENT=299.0614
SPLASH=splash10-0ufr-9000000000-97def53ff816671f5cb6
NUM_PEAKS=10
COMPOUND_NAME=Phoxim
SPECTRUM_ID=MSBNK-BAFG-CSL23111017826
ADDUCT=[M+H]+
MS_LEVEL=MS2
PRECURSOR_MZ=299.0614
IONMODE=positive
NOMINAL_MASS=298
PARENT_MASS=298.0541
46.9672 32.0 
49.0065 44.0 
50.0144 221.0 
51.0225 999.0 
64.978 68.0 
77.038 794.0 
78.939 71.0 
80.9723 15.0 
96.9495 85.0 
105.0436 15.0 
END IONS

BEGIN IONS
INCHIKEY=LCCNCVORNKJIRZ-UHFFFAOYSA-N
INCHI=InChI=1S/C10H14NO5PS/c1-3-14-17(18,15-4-2)16-10-7-5-9(6-8-10)11(12)13/h5-8H,3-4H2,1-2H3
SMILES=CCOP(=S)(OCC)Oc1ccc(cc1)[N+](=O)[O-]
INSTRUMENT_TYPE=LC-ESI-QTOF
INSTRUMENT=TripleTOF 5600 SCIEX
COLLISION_ENERGY=50
FORMULA=C10H14NO5PS
PARENT=292.0403
SPLASH=splash10-01vo-7900000000-2a1fc3f6574b076822ad
NUM_PEAKS=24
COMPOUND_NAME=Parathion
SPECTRUM_ID=MSBNK-BAFG-CSL2311093068
ADDUCT=[M+H]+
MS_LEVEL=MS2
PRECURSOR_MZ=292.0403
IONMODE=positive
NOMINAL_MASS=291
PARENT_MASS=291.033
65.0421 60.0 
66.0495 86.0 
75.0259 111.0 
78.9415 43.0 
92.0264 60.0 
93.0333 103.0 
93.054 51.0 
94.0418 999.0 
94.0718 51.0 
96.9514 439.0 
100.0064 43.0 
109.0098 86.0 
110.0179 594.0 
121.0383 51.0 
122.0212 43.0 
123.0309 697.0 
125.0044 60.0 
139.0102 77.0 
140.0338 94.0 
150.0296 43.0 
154.9695 120.0 
155.9955 232.0 
171.9728 206.0 
184.9871 68.0 
END IONS

BEGIN IONS
INCHIKEY=YFGYUFNIOHWBOB-UHFFFAOYSA-N
INCHI=InChI=1S/C11H18N4O2/c1-7-8(2)12-10(14(3)4)13-9(7)17-11(16)15(5)6/h1-6H3
SMILES=CC1=C(N=C(N=C1OC(=O)N(C)C)N(C)C)C
INSTRUMENT_TYPE=LC-ESI-QTOF
INSTRUMENT=TripleTOF 6600 SCIEX
COLLISION_ENERGY=20
FORMULA=C11H18N4O2
PARENT=239.1503
SPLASH=splash10-008i-5950000000-93c8ca2411b21c342aa9
NUM_PEAKS=4
COMPOUND_NAME=Pirimicarb
SPECTRUM_ID=MSBNK-BAFG-CSL23111017367
ADDUCT=[M+H]+
MS_LEVEL=MS2
PRECURSOR_MZ=239.1503
IONMODE=positive
NOMINAL_MASS=238
PARENT_MASS=238.143
72.045 601.0 
182.1298 999.0 
195.1606 47.0 
239.1516 662.0 
END IONS

BEGIN IONS
INCHIKEY=NFACJZMKEDPNKN-UHFFFAOYSA-N
INCHI=InChI=1S/C4H8Cl3O4P/c1-10-12(9,11-2)3(8)4(5,6)7/h3,8H,1-2H3
SMILES=COP(=O)(C(C(Cl)(Cl)Cl)O)OC
INSTRUMENT_TYPE=LC-ESI-QTOF
INSTRUMENT=TripleTOF 6600 SCIEX
COLLISION_ENERGY=80
FORMULA=C4H8Cl3O4P
PARENT=256.9299
SPLASH=splash10-001j-9000000000-a1a2149ae4fcd532e4f1
NUM_PEAKS=6
COMPOUND_NAME=Trichlorfon
SPECTRUM_ID=MSBNK-BAFG-CSL23111014345
ADDUCT=[M+H]+
MS_LEVEL=MS2
PRECURSOR_MZ=256.9299
IONMODE=positive
NOMINAL_MASS=256
PARENT_MASS=255.9226
46.9671 605.0 
47.9757 45.0 
48.9829 45.0 
62.9979 75.0 
78.9928 280.0 
82.9439 999.0 
END IONS

BEGIN IONS
INCHIKEY=RLBIQVVOMOPOHC-UHFFFAOYSA-N
INCHI=InChI=1S/C8H10NO5PS/c1-12-15(16,13-2)14-8-5-3-7(4-6-8)9(10)11/h3-6H,1-2H3
SMILES=COP(=S)(OC)OC1=CC=C(C=C1)[N+](=O)[O-]
INSTRUMENT_TYPE=LC-ESI-QTOF
INSTRUMENT=TripleTOF 6600 SCIEX
COLLISION_ENERGY=80
FORMULA=C8H10NO5PS
PARENT=264.009
SPLASH=splash10-00ba-9000000000-19e5c6788c7810d45eef
NUM_PEAKS=24
COMPOUND_NAME=Parathion-methyl
SPECTRUM_ID=MSBNK-BAFG-CSL23111018870
ADDUCT=[M+H]+
MS_LEVEL=MS2
PRECURSOR_MZ=264.009
IONMODE=positive
NOMINAL_MASS=263
PARENT_MASS=263.0017
44.9787 511.0 
46.9673 261.0 
46.9941 392.0 
50.0137 273.0 
61.0068 59.0 
62.0154 107.0 
62.9435 214.0 
62.9982 95.0 
63.0218 511.0 
64.0296 59.0 
65.0367 107.0 
68.9771 225.0 
69.9858 107.0 
73.0065 71.0 
74.0133 630.0 
75.0214 999.0 
76.0296 118.0 
77.037 83.0 
78.9936 225.0 
81.9854 118.0 
94.9939 95.0 
108.0 356.0 
125.9655 47.0 
154.9683 95.0 
END IONS

BEGIN IONS
INCHIKEY=OEBRKCOSUFCWJD-UHFFFAOYSA-N
INCHI=InChI=1S/C4H7Cl2O4P/c1-8-11(7,9-2)10-3-4(5)6/h3H,1-2H3
SMILES=CO[P](=O)(OC)OC=C(Cl)Cl
INSTRUMENT_TYPE=LC-ESI-QTOF
INSTRUMENT=TripleTOF 5600 SCIEX
COLLISION_ENERGY=30
FORMULA=C4H7Cl2O4P
PARENT=220.9532
SPLASH=splash10-0a4i-2900000000-a9e80662c184d5a9fd9b
NUM_PEAKS=12
COMPOUND_NAME=Dichlorvos
SPECTRUM_ID=MSBNK-BAFG-CSL2311096054
ADDUCT=[M+H]+
MS_LEVEL=MS2
PRECURSOR_MZ=220.9532
IONMODE=positive
NOMINAL_MASS=220
PARENT_MASS=219.9459
55.0585 25.0 
78.9967 156.0 
79.057 17.0 
91.0563 45.0 
94.9454 48.0 
94.9892 26.0 
96.9606 20.0 
109.0052 999.0 
112.9557 11.0 
127.0148 113.0 
144.9807 22.0 
220.9521 31.0 
END IONS

BEGIN IONS
INCHIKEY=ATROHALUCMTWTB-WYMLVPIESA-N
INCHI=InChI=1S/C12H15N2O3PS/c1-3-15-18(19,16-4-2)17-14-12(10-13)11-8-6-5-7-9-11/h5-9H,3-4H2,1-2H3/b14-12+
SMILES=CCOP(=S)(OCC)O/N=C(\C#N)/C1=CC=CC=C1
INSTRUMENT_TYPE=LC-ESI-QTOF
INSTRUMENT=TripleTOF 6600 SCIEX
COLLISION_ENERGY=150
FORMULA=C12H15N2O3PS
PARENT=299.0614
SPLASH=splash10-0udi-9000000000-d0fe6bed4cffa117ab4f
NUM_PEAKS=8
COMPOUND_NAME=Phoxim
SPECTRUM_ID=MSBNK-BAFG-CSL23111017839
ADDUCT=[M+H]+
MS_LEVEL=MS2
PRECURSOR_MZ=299.0614
IONMODE=positive
NOMINAL_MASS=298
PARENT_MASS=298.0541
46.9675 96.0 
49.0063 224.0 
50.0144 999.0 
51.0222 689.0 
62.9621 38.0 
74.0137 58.0 
77.0381 19.0 
78.9382 19.0 
END IONS

BEGIN IONS
INCHIKEY=QGLZXHRNAYXIBU-UHFFFAOYSA-N
INCHI=InChI=1S/C7H14N2O2S/c1-7(2,12-4)5-9-11-6(10)8-3/h5H,1-4H3,(H,8,10)
SMILES=CC(C)(C=NOC(=O)NC)SC
INSTRUMENT_TYPE=LC-ESI-QTOF
INSTRUMENT=TripleTOF 6600 SCIEX
COLLISION_ENERGY=130
FORMULA=C7H14N2O2S
PARENT=213.0668
SPLASH=splash10-0a4i-9000000000-558b2f7ad4cde1a939cb
NUM_PEAKS=7
COMPOUND_NAME=Aldicarb
SPECTRUM_ID=MSBNK-BAFG-CSL23111016270
ADDUCT=[M+Na]+
MS_LEVEL=MS2
PRECURSOR_MZ=213.0668
IONMODE=positive
NOMINAL_MASS=190
PARENT_MASS=190.0776
37.0072 140.0 
38.0154 87.0 
39.0231 236.0 
44.98 227.0 
46.9958 78.0 
57.9876 262.0 
58.9954 999.0 
END IONS

BEGIN IONS
INCHIKEY=QGLZXHRNAYXIBU-UHFFFAOYSA-N
INCHI=InChI=1S/C7H14N2O2S/c1-7(2,12-4)5-9-11-6(10)8-3/h5H,1-4H3,(H,8,10)
SMILES=CC(C)(C=NOC(=O)NC)SC
INSTRUMENT_TYPE=LC-ESI-QTOF
INSTRUMENT=TripleTOF 6600 SCIEX
COLLISION_ENERGY=120
FORMULA=C7H14N2O2S
PARENT=213.0668
SPLASH=splash10-0a4i-9000000000-119c2830bff89d4708f1
NUM_PEAKS=7
COMPOUND_NAME=Aldicarb
SPECTRUM_ID=MSBNK-BAFG-CSL23111016269
ADDUCT=[M+Na]+
MS_LEVEL=MS2
PRECURSOR_MZ=213.0668
IONMODE=positive
NOMINAL_MASS=190
PARENT_MASS=190.0776
37.0078 77.0 
38.0159 100.0 
39.0234 255.0 
44.9795 193.0 
46.996 61.0 
57.9874 185.0 
58.9956 999.0 
END IONS

BEGIN IONS
INCHIKEY=FHIVAFMUCKRCQO-UHFFFAOYSA-N
INCHI=InChI=1S/C12H21N2O3PS/c1-6-15-18(19,16-7-2)17-11-8-10(5)13-12(14-11)9(3)4/h8-9H,6-7H2,1-5H3
SMILES=CCO[P](=S)(OCC)Oc1cc(C)nc(n1)C(C)C
INSTRUMENT_TYPE=LC-ESI-QTOF
INSTRUMENT=TripleTOF 5600 SCIEX
COLLISION_ENERGY=100
FORMULA=C12H21N2O3PS
PARENT=305.1083
SPLASH=splash10-01r2-9000000000-904de0c61d5db7fd1613
NUM_PEAKS=18
COMPOUND_NAME=Diazinon
SPECTRUM_ID=MSBNK-BAFG-CSL2311094560
ADDUCT=[M+H]+
MS_LEVEL=MS2
PRECURSOR_MZ=305.1083
IONMODE=positive
NOMINAL_MASS=304
PARENT_MASS=304.1011
42.0439 148.0 
54.0406 15.0 
56.054 11.0 
58.9996 46.0 
59.9942 46.0 
62.9674 101.0 
64.9839 433.0 
66.0372 9.0 
67.0456 77.0 
70.0682 20.0 
78.9437 516.0 
80.9766 187.0 
82.9971 57.0 
84.0465 48.0 
90.9952 16.0 
96.9528 999.0 
100.0229 71.0 
153.0471 24.0 
END IONS

BEGIN IONS
INCHIKEY=CVXBEEMKQHEXEN-UHFFFAOYSA-N
INCHI=InChI=1S/C12H11NO2/c1-13-12(14)15-11-8-4-6-9-5-2-3-7-10(9)11/h2-8H,1H3,(H,13,14)
SMILES=CNC(=O)Oc1cccc2ccccc12
INSTRUMENT_TYPE=LC-ESI-QTOF
INSTRUMENT=TripleTOF 5600 SCIEX
COLLISION_ENERGY=80
FORMULA=C12H11NO2
PARENT=202.0863
SPLASH=splash10-00or-9600000000-8e3ac5d58f22b9b26063
NUM_PEAKS=23
COMPOUND_NAME=Carbaryl
SPECTRUM_ID=MSBNK-BAFG-CSL2311095483
ADDUCT=[M+H]+
MS_LEVEL=MS2
PRECURSOR_MZ=202.0863
IONMODE=positive
NOMINAL_MASS=201
PARENT_MASS=201.079
58.0334 41.0 
58.042 20.0 
65.0423 331.0 
74.0177 120.0 
75.0261 394.0 
76.0346 20.0 
77.0415 801.0 
87.0254 20.0 
89.0405 190.0 
91.0557 418.0 
91.0839 17.0 
98.0154 17.0 
99.024 34.0 
100.0316 24.0 
101.0396 152.0 
102.047 34.0 
114.0465 17.0 
115.0548 999.0 
116.0609 31.0 
125.0437 17.0 
126.0461 324.0 
127.0547 176.0 
128.062 24.0 
END IONS

BEGIN IONS
INCHIKEY=RLBIQVVOMOPOHC-UHFFFAOYSA-N
INCHI=InChI=1S/C8H10NO5PS/c1-12-15(16,13-2)14-8-5-3-7(4-6-8)9(10)11/h3-6H,1-2H3
SMILES=COP(=S)(OC)OC1=CC=C(C=C1)[N+](=O)[O-]
INSTRUMENT_TYPE=LC-ESI-QTOF
INSTRUMENT=TripleTOF 6600 SCIEX
COLLISION_ENERGY=70
FORMULA=C8H10NO5PS
PARENT=264.009
SPLASH=splash10-004i-9100000000-2a2ae685fdcb75aab064
NUM_PEAKS=27
COMPOUND_NAME=Parathion-methyl
SPECTRUM_ID=MSBNK-BAFG-CSL23111018878
ADDUCT=[M+H]+
MS_LEVEL=MS2
PRECURSOR_MZ=264.009
IONMODE=positive
NOMINAL_MASS=263
PARENT_MASS=263.0017
44.9782 384.0 
46.9669 208.0 
46.9938 450.0 
50.0143 164.0 
62.0163 120.0 
62.9437 164.0 
62.9977 87.0 
63.022 406.0 
64.0307 98.0 
65.0357 54.0 
68.979 230.0 
69.9861 87.0 
74.0138 307.0 
75.0214 999.0 
76.0294 109.0 
77.0359 65.0 
78.9919 406.0 
81.9855 98.0 
83.0032 65.0 
93.0078 76.0 
94.9936 109.0 
108.001 296.0 
109.0067 43.0 
125.9681 65.0 
152.9507 76.0 
153.9644 98.0 
154.9691 230.0 
END IONS

BEGIN IONS
INCHIKEY=YFBPRJGDJKVWAH-UHFFFAOYSA-N
INCHI=InChI=1S/C11H15NO2S/c1-7-5-9(14-11(13)12-3)6-8(2)10(7)15-4/h5-6H,1-4H3,(H,12,13)
SMILES=Cc1cc(cc(c1SC)C)OC(=O)NC
INSTRUMENT_TYPE=LC-ESI-QTOF
INSTRUMENT=TripleTOF 6600 SCIEX
COLLISION_ENERGY=80
FORMULA=C11H15NO2S
PARENT=226.0896
SPLASH=splash10-004i-9100000000-3315de67a0989f949374
NUM_PEAKS=28
COMPOUND_NAME=Methiocarb
SPECTRUM_ID=MSBNK-BAFG-CSL23111027294
ADDUCT=[M+H]+
MS_LEVEL=MS2
PRECURSOR_MZ=226.0896
IONMODE=positive
NOMINAL_MASS=225
PARENT_MASS=225.0823
37.0049 11.0 
38.0132 13.0 
39.0208 93.0 
41.0368 22.0 
44.977 33.0 
50.0131 72.0 
51.0209 382.0 
52.0283 13.0 
53.0359 35.0 
55.0156 16.0 
58.0269 14.0 
63.0203 23.0 
65.0359 140.0 
67.0514 15.0 
77.0361 999.0 
78.0436 79.0 
79.052 119.0 
81.0311 20.0 
89.0361 11.0 
91.0517 247.0 
103.0515 42.0 
105.0408 27.0 
107.046 205.0 
111.0232 10.0 
121.0095 10.0 
121.0619 63.0 
134.0173 11.0 
135.0236 13.0 
END IONS

BEGIN IONS
INCHIKEY=ATROHALUCMTWTB-WYMLVPIESA-N
INCHI=InChI=1S/C12H15N2O3PS/c1-3-15-18(19,16-4-2)17-14-12(10-13)11-8-6-5-7-9-11/h5-9H,3-4H2,1-2H3/b14-12+
SMILES=CCOP(=S)(OCC)O/N=C(\C#N)/C1=CC=CC=C1
INSTRUMENT_TYPE=LC-ESI-QTOF
INSTRUMENT=TripleTOF 6600 SCIEX
COLLISION_ENERGY=10
FORMULA=C12H15N2O3PS
PARENT=299.0614
SPLASH=splash10-0fb9-0900000000-6b8a3a3201309e179a85
NUM_PEAKS=5
COMPOUND_NAME=Phoxim
SPECTRUM_ID=MSBNK-BAFG-CSL23111017832
ADDUCT=[M+H]+
MS_LEVEL=MS2
PRECURSOR_MZ=299.0614
IONMODE=positive
NOMINAL_MASS=298
PARENT_MASS=298.0541
77.0375 21.0 
96.9496 83.0 
124.9813 447.0 
129.0442 999.0 
153.0129 735.0 
END IONS

BEGIN IONS
INCHIKEY=NFACJZMKEDPNKN-UHFFFAOYSA-N
INCHI=InChI=1S/C4H8Cl3O4P/c1-10-12(9,11-2)3(8)4(5,6)7/h3,8H,1-2H3
SMILES=COP(=O)(C(C(Cl)(Cl)Cl)O)OC
INSTRUMENT_TYPE=LC-ESI-QTOF
INSTRUMENT=TripleTOF 6600 SCIEX
COLLISION_ENERGY=50
FORMULA=C4H8Cl3O4P
PARENT=256.9299
SPLASH=splash10-057i-9400000000-79a9490ca857b6d10916
NUM_PEAKS=12
COMPOUND_NAME=Trichlorfon
SPECTRUM_ID=MSBNK-BAFG-CSL23111014334
ADDUCT=[M+H]+
MS_LEVEL=MS2
PRECURSOR_MZ=256.9299
IONMODE=positive
NOMINAL_MASS=256
PARENT_MASS=255.9226
46.9671 264.0 
48.9828 39.0 
62.998 107.0 
78.9934 999.0 
82.9437 548.0 
92.9721 48.0 
93.0088 107.0 
96.9593 29.0 
109.0036 891.0 
110.9388 29.0 
112.9535 19.0 
127.014 73.0 
END IONS

BEGIN IONS
INCHIKEY=JXSJBGJIGXNWCI-UHFFFAOYSA-N
INCHI=InChI=1S/C10H19O6PS2/c1-5-15-9(11)7-8(10(12)16-6-2)19-17(18,13-3)14-4/h8H,5-7H2,1-4H3
SMILES=CCOC(=O)CC(C(=O)OCC)SP(=S)(OC)OC
INSTRUMENT_TYPE=LC-ESI-QTOF
INSTRUMENT=TripleTOF 5600 SCIEX
COLLISION_ENERGY=40
FORMULA=C10H19O6PS2
PARENT=331.0433
SPLASH=splash10-006t-9700000000-e98e75f758f7710bc2eb
NUM_PEAKS=9
COMPOUND_NAME=Malathion
SPECTRUM_ID=MSBNK-BAFG-CSL23111010796
ADDUCT=[M+H]+
MS_LEVEL=MS2
PRECURSOR_MZ=331.0433
IONMODE=positive
NOMINAL_MASS=330
PARENT_MASS=330.0361
71.0124 70.0 
78.9941 56.0 
99.0074 999.0 
110.9662 56.0 
117.0006 42.0 
118.9627 35.0 
124.9824 576.0 
127.0384 253.0 
210.9651 84.0 
END IONS

BEGIN IONS
INCHIKEY=YASYVMFAVPKPKE-UHFFFAOYSA-N
INCHI=InChI=1S/C4H10NO3PS/c1-4(6)5-9(7,8-2)10-3/h1-3H3,(H,5,6,7)
SMILES=CC(=O)NP(=O)(OC)SC
INSTRUMENT_TYPE=LC-ESI-QTOF
INSTRUMENT=TripleTOF 6600 SCIEX
COLLISION_ENERGY=20
FORMULA=C4H10NO3PS
PARENT=184.0192
SPLASH=splash10-0006-2900000000-ed09dbbeea506f52ba7d
NUM_PEAKS=10
COMPOUND_NAME=Acephate
SPECTRUM_ID=MSBNK-BAFG-CSL23111014581
ADDUCT=[M+H]+
MS_LEVEL=MS2
PRECURSOR_MZ=184.0192
IONMODE=positive
NOMINAL_MASS=183
PARENT_MASS=183.0119
42.0327 15.0 
49.0091 87.0 
94.0038 13.0 
94.9871 82.0 
97.9665 26.0 
98.9678 38.0 
110.9654 24.0 
124.9795 146.0 
142.9563 13.0 
142.9904 999.0 
END IONS

BEGIN IONS
INCHIKEY=CVXBEEMKQHEXEN-UHFFFAOYSA-N
INCHI=InChI=1S/C12H11NO2/c1-13-12(14)15-11-8-4-6-9-5-2-3-7-10(9)11/h2-8H,1H3,(H,13,14)
SMILES=CNC(=O)Oc1cccc2ccccc12
INSTRUMENT_TYPE=LC-ESI-QTOF
INSTRUMENT=TripleTOF 5600 SCIEX
COLLISION_ENERGY=100
FORMULA=C12H11NO2
PARENT=202.0863
SPLASH=splash10-0g29-9100000000-187d6fad9f9cba0b5271
NUM_PEAKS=18
COMPOUND_NAME=Carbaryl
SPECTRUM_ID=MSBNK-BAFG-CSL2311095495
ADDUCT=[M+H]+
MS_LEVEL=MS2
PRECURSOR_MZ=202.0863
IONMODE=positive
NOMINAL_MASS=201
PARENT_MASS=201.079
51.0285 999.0 
58.0326 108.0 
65.0416 586.0 
73.0095 108.0 
74.0173 999.0 
75.0244 846.0 
76.0313 86.0 
77.0397 597.0 
85.0081 76.0 
86.0163 162.0 
87.0248 130.0 
89.0387 477.0 
91.0548 249.0 
91.0832 54.0 
98.0152 173.0 
101.0388 76.0 
115.0533 618.0 
126.0446 195.0 
END IONS

BEGIN IONS
INCHIKEY=RLBIQVVOMOPOHC-UHFFFAOYSA-N
INCHI=InChI=1S/C8H10NO5PS/c1-12-15(16,13-2)14-8-5-3-7(4-6-8)9(10)11/h3-6H,1-2H3
SMILES=COP(=S)(OC)OC1=CC=C(C=C1)[N+](=O)[O-]
INSTRUMENT_TYPE=LC-ESI-QTOF
INSTRUMENT=TripleTOF 6600 SCIEX
COLLISION_ENERGY=30
FORMULA=C8H10NO5PS
PARENT=264.009
SPLASH=splash10-00e9-1930000000-d2aeffbb484aced52287
NUM_PEAKS=37
COMPOUND_NAME=Parathion-methyl
SPECTRUM_ID=MSBNK-BAFG-CSL23111018881
ADDUCT=[M+H]+
MS_LEVEL=MS2
PRECURSOR_MZ=264.009
IONMODE=positive
NOMINAL_MASS=263
PARENT_MASS=263.0017
46.9937 27.0 
62.0175 10.0 
75.0213 30.0 
78.9925 174.0 
91.0525 11.0 
92.024 46.0 
93.0319 13.0 
96.0012 20.0 
108.0018 13.0 
109.0035 313.0 
122.0224 29.0 
123.0289 61.0 
123.9965 58.0 
124.9807 999.0 
127.0145 38.0 
138.0017 11.0 
139.0071 35.0 
142.9906 22.0 
150.0298 70.0 
153.9612 70.0 
153.9924 38.0 
154.9701 123.0 
155.9783 29.0 
156.9869 11.0 
168.9902 11.0 
169.0158 23.0 
170.9652 19.0 
183.9752 11.0 
184.9801 51.0 
185.9883 246.0 
199.9554 269.0 
201.9836 17.0 
214.9797 93.0 
218.0161 48.0 
231.981 787.0 
249.9913 66.0 
264.0115 17.0 
END IONS

BEGIN IONS
INCHIKEY=JXSJBGJIGXNWCI-UHFFFAOYSA-N
INCHI=InChI=1S/C10H19O6PS2/c1-5-15-9(11)7-8(10(12)16-6-2)19-17(18,13-3)14-4/h8H,5-7H2,1-4H3
SMILES=CCOC(=O)CC(C(=O)OCC)SP(=S)(OC)OC
INSTRUMENT_TYPE=LC-ESI-QTOF
INSTRUMENT=TripleTOF 5600 SCIEX
COLLISION_ENERGY=100
FORMULA=C10H19O6PS2
PARENT=331.0433
SPLASH=splash10-006t-9100000000-fc84ed54dc8916d72621
NUM_PEAKS=13
COMPOUND_NAME=Malathion
SPECTRUM_ID=MSBNK-BAFG-CSL23111010790
ADDUCT=[M+H]+
MS_LEVEL=MS2
PRECURSOR_MZ=331.0433
IONMODE=positive
NOMINAL_MASS=330
PARENT_MASS=330.0361
44.9788 790.0 
46.9681 374.0 
46.9942 915.0 
53.003 166.0 
58.9943 291.0 
62.9996 249.0 
71.0126 749.0 
78.9935 832.0 
80.9733 291.0 
93.0084 208.0 
99.0069 999.0 
110.966 208.0 
124.9802 457.0 
END IONS

BEGIN IONS
INCHIKEY=FHIVAFMUCKRCQO-UHFFFAOYSA-N
INCHI=InChI=1S/C12H21N2O3PS/c1-6-15-18(19,16-7-2)17-11-8-10(5)13-12(14-11)9(3)4/h8-9H,6-7H2,1-5H3
SMILES=CCO[P](=S)(OCC)Oc1cc(C)nc(n1)C(C)C
INSTRUMENT_TYPE=LC-ESI-QTOF
INSTRUMENT=TripleTOF 5600 SCIEX
COLLISION_ENERGY=40
FORMULA=C12H21N2O3PS
PARENT=305.1083
SPLASH=splash10-0gba-3900000000-5caea392e807dfcf729d
NUM_PEAKS=13
COMPOUND_NAME=Diazinon
SPECTRUM_ID=MSBNK-BAFG-CSL2311094547
ADDUCT=[M+H]+
MS_LEVEL=MS2
PRECURSOR_MZ=305.1083
IONMODE=positive
NOMINAL_MASS=304
PARENT_MASS=304.1011
70.0696 50.0 
78.9428 12.0 
80.9761 26.0 
84.0477 153.0 
90.995 13.0 
96.953 570.0 
100.0232 271.0 
109.0049 24.0 
124.982 67.0 
153.1024 702.0 
154.0551 10.0 
169.0793 999.0 
231.034 10.0 
END IONS

BEGIN IONS
INCHIKEY=CVXBEEMKQHEXEN-UHFFFAOYSA-N
INCHI=InChI=1S/C12H11NO2/c1-13-12(14)15-11-8-4-6-9-5-2-3-7-10(9)11/h2-8H,1H3,(H,13,14)
SMILES=CNC(=O)Oc1cccc2ccccc12
INSTRUMENT_TYPE=LC-ESI-QTOF
INSTRUMENT=TripleTOF 5600 SCIEX
COLLISION_ENERGY=60
FORMULA=C12H11NO2
PARENT=202.0863
SPLASH=splash10-00or-4900000000-fe93510a6f88b02d7094
NUM_PEAKS=19
COMPOUND_NAME=Carbaryl
SPECTRUM_ID=MSBNK-BAFG-CSL2311095482
ADDUCT=[M+H]+
MS_LEVEL=MS2
PRECURSOR_MZ=202.0863
IONMODE=positive
NOMINAL_MASS=201
PARENT_MASS=201.079
58.0333 43.0 
65.0428 100.0 
75.0266 58.0 
77.0412 521.0 
89.041 40.0 
91.0558 587.0 
101.04 115.0 
102.047 10.0 
115.0547 847.0 
116.0621 71.0 
117.0699 115.0 
125.0378 12.0 
126.0466 259.0 
127.0546 999.0 
128.0605 23.0 
129.0444 16.0 
144.0567 40.0 
145.0654 10.0 
155.0625 23.0 
END IONS

BEGIN IONS
INCHIKEY=YFBPRJGDJKVWAH-UHFFFAOYSA-N
INCHI=InChI=1S/C11H15NO2S/c1-7-5-9(14-11(13)12-3)6-8(2)10(7)15-4/h5-6H,1-4H3,(H,12,13)
SMILES=Cc1cc(cc(c1SC)C)OC(=O)NC
INSTRUMENT_TYPE=LC-ESI-QTOF
INSTRUMENT=TripleTOF 6600 SCIEX
COLLISION_ENERGY=110
FORMULA=C11H15NO2S
PARENT=226.0896
SPLASH=splash10-0udi-9000000000-bc47ea77071cd6b4c8ba
NUM_PEAKS=26
COMPOUND_NAME=Methiocarb
SPECTRUM_ID=MSBNK-BAFG-CSL23111027297
ADDUCT=[M+H]+
MS_LEVEL=MS2
PRECURSOR_MZ=226.0896
IONMODE=positive
NOMINAL_MASS=225
PARENT_MASS=225.0823
35.997 25.0 
37.0056 103.0 
38.0008 17.0 
38.0133 94.0 
39.0208 409.0 
41.036 60.0 
44.9772 124.0 
49.0051 51.0 
50.0128 482.0 
51.0206 999.0 
52.028 38.0 
53.0356 68.0 
55.0155 30.0 
61.004 43.0 
62.0124 77.0 
63.0201 116.0 
65.0363 210.0 
68.976 86.0 
74.0126 60.0 
77.0362 572.0 
78.0429 51.0 
79.0516 21.0 
89.0352 47.0 
91.0515 116.0 
105.043 17.0 
107.0459 25.0 
END IONS

BEGIN IONS
INCHIKEY=CVXBEEMKQHEXEN-UHFFFAOYSA-N
INCHI=InChI=1S/C12H11NO2/c1-13-12(14)15-11-8-4-6-9-5-2-3-7-10(9)11/h2-8H,1H3,(H,13,14)
SMILES=CNC(=O)Oc1cccc2ccccc12
INSTRUMENT_TYPE=LC-ESI-QTOF
INSTRUMENT=TripleTOF 5600 SCIEX
COLLISION_ENERGY=110
FORMULA=C12H11NO2
PARENT=202.0863
SPLASH=splash10-00fr-9100000000-ba8384ded3d7aa10586a
NUM_PEAKS=16
COMPOUND_NAME=Carbaryl
SPECTRUM_ID=MSBNK-BAFG-CSL2311095492
ADDUCT=[M+H]+
MS_LEVEL=MS2
PRECURSOR_MZ=202.0863
IONMODE=positive
NOMINAL_MASS=201
PARENT_MASS=201.079
58.0347 46.0 
65.0416 214.0 
73.0104 149.0 
74.0183 999.0 
75.0257 541.0 
76.0338 46.0 
77.0413 252.0 
85.0083 74.0 
86.0177 177.0 
87.0232 84.0 
89.0395 252.0 
91.0556 46.0 
97.0093 46.0 
98.0156 177.0 
115.0541 270.0 
126.046 93.0 
END IONS

BEGIN IONS
INCHIKEY=DUEPRVBVGDRKAG-UHFFFAOYSA-N
INCHI=InChI=1S/C12H15NO3/c1-12(2)7-8-5-4-6-9(10(8)16-12)15-11(14)13-3/h4-6H,7H2,1-3H3,(H,13,14)
SMILES=CNC(=O)Oc1cccc2CC(C)(C)Oc12
INSTRUMENT_TYPE=LC-ESI-QTOF
INSTRUMENT=TripleTOF 5600 SCIEX
COLLISION_ENERGY=30
FORMULA=C12H15NO3
PARENT=222.1125
SPLASH=splash10-00di-0900000000-f1042e30532784072822
NUM_PEAKS=9
COMPOUND_NAME=Carbofuran
SPECTRUM_ID=MSBNK-BAFG-CSL2311095464
ADDUCT=[M+H]+
MS_LEVEL=MS2
PRECURSOR_MZ=222.1125
IONMODE=positive
NOMINAL_MASS=221
PARENT_MASS=221.1052
55.0603 50.0 
77.0412 14.0 
91.0559 48.0 
95.0505 20.0 
119.0853 41.0 
123.0447 999.0 
137.0597 90.0 
147.0802 35.0 
165.0913 277.0 
END IONS

BEGIN IONS
INCHIKEY=JXSJBGJIGXNWCI-UHFFFAOYSA-N
INCHI=InChI=1S/C10H19O6PS2/c1-5-15-9(11)7-8(10(12)16-6-2)19-17(18,13-3)14-4/h8H,5-7H2,1-4H3
SMILES=CCOC(=O)CC(C(=O)OCC)SP(=S)(OC)OC
INSTRUMENT_TYPE=LC-ESI-QTOF
INSTRUMENT=TripleTOF 5600 SCIEX
COLLISION_ENERGY=90
FORMULA=C10H19O6PS2
PARENT=331.0433
SPLASH=splash10-006t-9100000000-bef8cb3aa4c383ee82b5
NUM_PEAKS=10
COMPOUND_NAME=Malathion
SPECTRUM_ID=MSBNK-BAFG-CSL23111010794
ADDUCT=[M+H]+
MS_LEVEL=MS2
PRECURSOR_MZ=331.0433
IONMODE=positive
NOMINAL_MASS=330
PARENT_MASS=330.0361
44.9793 268.0 
46.9683 121.0 
46.9947 560.0 
53.0027 97.0 
58.9955 121.0 
71.0123 389.0 
78.9942 706.0 
93.0094 121.0 
99.0069 999.0 
124.9814 609.0 
END IONS

BEGIN IONS
INCHIKEY=CVXBEEMKQHEXEN-UHFFFAOYSA-N
INCHI=InChI=1S/C12H11NO2/c1-13-12(14)15-11-8-4-6-9-5-2-3-7-10(9)11/h2-8H,1H3,(H,13,14)
SMILES=CNC(=O)Oc1cccc2ccccc12
INSTRUMENT_TYPE=LC-ESI-QTOF
INSTRUMENT=TripleTOF 5600 SCIEX
COLLISION_ENERGY=90
FORMULA=C12H11NO2
PARENT=202.0863
SPLASH=splash10-00or-9300000000-8f3728dd5d19383cd639
NUM_PEAKS=17
COMPOUND_NAME=Carbaryl
SPECTRUM_ID=MSBNK-BAFG-CSL2311095480
ADDUCT=[M+H]+
MS_LEVEL=MS2
PRECURSOR_MZ=202.0863
IONMODE=positive
NOMINAL_MASS=201
PARENT_MASS=201.079
58.0342 106.0 
65.0422 531.0 
73.0132 42.0 
74.0179 403.0 
75.0253 708.0 
76.0329 56.0 
77.0414 921.0 
86.0165 70.0 
87.0255 70.0 
89.0406 396.0 
91.0549 375.0 
98.0147 63.0 
100.0323 49.0 
101.0397 106.0 
115.0543 999.0 
126.0454 340.0 
127.0532 56.0 
END IONS

BEGIN IONS
INCHIKEY=YFGYUFNIOHWBOB-UHFFFAOYSA-N
INCHI=InChI=1S/C11H18N4O2/c1-7-8(2)12-10(14(3)4)13-9(7)17-11(16)15(5)6/h1-6H3
SMILES=CC1=C(N=C(N=C1OC(=O)N(C)C)N(C)C)C
INSTRUMENT_TYPE=LC-ESI-QTOF
INSTRUMENT=TripleTOF 6600 SCIEX
COLLISION_ENERGY=110
FORMULA=C11H18N4O2
PARENT=239.1503
SPLASH=splash10-0avl-9000000000-43d763420920f6e563ff
NUM_PEAKS=6
COMPOUND_NAME=Pirimicarb
SPECTRUM_ID=MSBNK-BAFG-CSL23111017376
ADDUCT=[M+H]+
MS_LEVEL=MS2
PRECURSOR_MZ=239.1503
IONMODE=positive
NOMINAL_MASS=238
PARENT_MASS=238.143
42.0337 644.0 
55.028 225.0 
56.0127 999.0 
68.0481 225.0 
69.0449 708.0 
72.0439 612.0 
END IONS

BEGIN IONS
INCHIKEY=RLBIQVVOMOPOHC-UHFFFAOYSA-N
INCHI=InChI=1S/C8H10NO5PS/c1-12-15(16,13-2)14-8-5-3-7(4-6-8)9(10)11/h3-6H,1-2H3
SMILES=COP(=S)(OC)OC1=CC=C(C=C1)[N+](=O)[O-]
INSTRUMENT_TYPE=LC-ESI-QTOF
INSTRUMENT=TripleTOF 6600 SCIEX
COLLISION_ENERGY=120
FORMULA=C8H10NO5PS
PARENT=264.009
SPLASH=splash10-00di-9000000000-b93d3cff80daffab81be
NUM_PEAKS=14
COMPOUND_NAME=Parathion-methyl
SPECTRUM_ID=MSBNK-BAFG-CSL23111018883
ADDUCT=[M+H]+
MS_LEVEL=MS2
PRECURSOR_MZ=264.009
IONMODE=positive
NOMINAL_MASS=263
PARENT_MASS=263.0017
44.9783 484.0 
46.9661 249.0 
46.9937 102.0 
49.0064 102.0 
50.0143 470.0 
61.0056 117.0 
62.0138 146.0 
62.9445 205.0 
63.0215 146.0 
68.9783 279.0 
73.0054 190.0 
74.014 999.0 
75.0211 235.0 
81.9845 58.0 
END IONS

BEGIN IONS
INCHIKEY=FHIVAFMUCKRCQO-UHFFFAOYSA-N
INCHI=InChI=1S/C12H21N2O3PS/c1-6-15-18(19,16-7-2)17-11-8-10(5)13-12(14-11)9(3)4/h8-9H,6-7H2,1-5H3
SMILES=CCO[P](=S)(OCC)Oc1cc(C)nc(n1)C(C)C
INSTRUMENT_TYPE=LC-ESI-QTOF
INSTRUMENT=TripleTOF 5600 SCIEX
COLLISION_ENERGY=110
FORMULA=C12H21N2O3PS
PARENT=305.1083
SPLASH=splash10-01r2-9000000000-b3bdd5b7afbb5c33d584
NUM_PEAKS=21
COMPOUND_NAME=Diazinon
SPECTRUM_ID=MSBNK-BAFG-CSL2311094558
ADDUCT=[M+H]+
MS_LEVEL=MS2
PRECURSOR_MZ=305.1083
IONMODE=positive
NOMINAL_MASS=304
PARENT_MASS=304.1011
42.0431 210.0 
54.0396 24.0 
56.0538 13.0 
57.9926 18.0 
58.9996 55.0 
59.9944 49.0 
62.9676 172.0 
64.9838 696.0 
66.0376 15.0 
67.0452 67.0 
70.0677 14.0 
78.9434 746.0 
80.9757 231.0 
82.9967 80.0 
84.0463 41.0 
90.9955 17.0 
94.066 14.0 
96.9521 999.0 
99.0139 11.0 
100.0215 50.0 
153.0468 12.0 
END IONS

BEGIN IONS
INCHIKEY=LCCNCVORNKJIRZ-UHFFFAOYSA-N
INCHI=InChI=1S/C10H14NO5PS/c1-3-14-17(18,15-4-2)16-10-7-5-9(6-8-10)11(12)13/h5-8H,3-4H2,1-2H3
SMILES=CCOP(=S)(OCC)Oc1ccc(cc1)[N+](=O)[O-]
INSTRUMENT_TYPE=LC-ESI-QTOF
INSTRUMENT=TripleTOF 5600 SCIEX
COLLISION_ENERGY=20
FORMULA=C10H14NO5PS
PARENT=292.0403
SPLASH=splash10-000i-0090000000-d213471d31a79d8e6377
NUM_PEAKS=7
COMPOUND_NAME=Parathion
SPECTRUM_ID=MSBNK-BAFG-CSL2311093066
ADDUCT=[M+H]+
MS_LEVEL=MS2
PRECURSOR_MZ=292.0403
IONMODE=positive
NOMINAL_MASS=291
PARENT_MASS=291.033
140.0323 26.0 
156.0106 19.0 
189.983 23.0 
217.9654 35.0 
235.9776 999.0 
264.0083 168.0 
292.04 45.0 
END IONS

BEGIN IONS
INCHIKEY=NFACJZMKEDPNKN-UHFFFAOYSA-N
INCHI=InChI=1S/C4H8Cl3O4P/c1-10-12(9,11-2)3(8)4(5,6)7/h3,8H,1-2H3
SMILES=COP(=O)(C(C(Cl)(Cl)Cl)O)OC
INSTRUMENT_TYPE=LC-ESI-QTOF
INSTRUMENT=TripleTOF 6600 SCIEX
COLLISION_ENERGY=60
FORMULA=C4H8Cl3O4P
PARENT=256.9299
SPLASH=splash10-003r-9000000000-a0cda93844414b86d576
NUM_PEAKS=8
COMPOUND_NAME=Trichlorfon
SPECTRUM_ID=MSBNK-BAFG-CSL23111014343
ADDUCT=[M+H]+
MS_LEVEL=MS2
PRECURSOR_MZ=256.9299
IONMODE=positive
NOMINAL_MASS=256
PARENT_MASS=255.9226
46.9672 443.0 
48.9823 52.0 
62.9982 135.0 
78.9929 608.0 
82.9436 999.0 
92.9728 45.0 
93.0088 60.0 
109.0033 240.0 
END IONS

BEGIN IONS
INCHIKEY=ATROHALUCMTWTB-WYMLVPIESA-N
INCHI=InChI=1S/C12H15N2O3PS/c1-3-15-18(19,16-4-2)17-14-12(10-13)11-8-6-5-7-9-11/h5-9H,3-4H2,1-2H3/b14-12+
SMILES=CCOP(=S)(OCC)O/N=C(\C#N)/C1=CC=CC=C1
INSTRUMENT_TYPE=LC-ESI-QTOF
INSTRUMENT=TripleTOF 6600 SCIEX
COLLISION_ENERGY=40
FORMULA=C12H15N2O3PS
PARENT=299.0614
SPLASH=splash10-004i-9000000000-06f7553aa568bc09257f
NUM_PEAKS=6
COMPOUND_NAME=Phoxim
SPECTRUM_ID=MSBNK-BAFG-CSL23111017835
ADDUCT=[M+H]+
MS_LEVEL=MS2
PRECURSOR_MZ=299.0614
IONMODE=positive
NOMINAL_MASS=298
PARENT_MASS=298.0541
51.0222 47.0 
77.0382 999.0 
78.9392 10.0 
96.9501 412.0 
105.0439 30.0 
129.0436 46.0 
END IONS

BEGIN IONS
INCHIKEY=YFGYUFNIOHWBOB-UHFFFAOYSA-N
INCHI=InChI=1S/C11H18N4O2/c1-7-8(2)12-10(14(3)4)13-9(7)17-11(16)15(5)6/h1-6H3
SMILES=CC1=C(N=C(N=C1OC(=O)N(C)C)N(C)C)C
INSTRUMENT_TYPE=LC-ESI-QTOF
INSTRUMENT=TripleTOF 6600 SCIEX
COLLISION_ENERGY=50
FORMULA=C11H18N4O2
PARENT=239.1503
SPLASH=splash10-00di-9000000000-a8101f3bedafd579c59f
NUM_PEAKS=9
COMPOUND_NAME=Pirimicarb
SPECTRUM_ID=MSBNK-BAFG-CSL23111017374
ADDUCT=[M+H]+
MS_LEVEL=MS2
PRECURSOR_MZ=239.1503
IONMODE=positive
NOMINAL_MASS=238
PARENT_MASS=238.143
44.0496 16.0 
56.0129 27.0 
69.057 11.0 
72.0449 999.0 
83.0238 25.0 
85.0761 70.0 
109.0759 78.0 
138.0785 21.0 
152.0814 25.0 
END IONS

BEGIN IONS
INCHIKEY=JXSJBGJIGXNWCI-UHFFFAOYSA-N
INCHI=InChI=1S/C10H19O6PS2/c1-5-15-9(11)7-8(10(12)16-6-2)19-17(18,13-3)14-4/h8H,5-7H2,1-4H3
SMILES=CCOC(=O)CC(C(=O)OCC)SP(=S)(OC)OC
INSTRUMENT_TYPE=LC-ESI-QTOF
INSTRUMENT=TripleTOF 5600 SCIEX
COLLISION_ENERGY=80
FORMULA=C10H19O6PS2
PARENT=331.0433
SPLASH=splash10-006t-9200000000-c2e02633505951b8b06b
NUM_PEAKS=11
COMPOUND_NAME=Malathion
SPECTRUM_ID=MSBNK-BAFG-CSL23111010791
ADDUCT=[M+H]+
MS_LEVEL=MS2
PRECURSOR_MZ=331.0433
IONMODE=positive
NOMINAL_MASS=330
PARENT_MASS=330.0361
44.9784 124.0 
46.9945 267.0 
62.9982 71.0 
71.0125 445.0 
78.9941 463.0 
80.9741 107.0 
93.009 89.0 
98.9826 89.0 
99.0076 999.0 
110.9667 89.0 
124.9821 713.0 
END IONS

BEGIN IONS
INCHIKEY=DUEPRVBVGDRKAG-UHFFFAOYSA-N
INCHI=InChI=1S/C12H15NO3/c1-12(2)7-8-5-4-6-9(10(8)16-12)15-11(14)13-3/h4-6H,7H2,1-3H3,(H,13,14)
SMILES=CNC(=O)Oc1cccc2CC(C)(C)Oc12
INSTRUMENT_TYPE=LC-ESI-QTOF
INSTRUMENT=TripleTOF 5600 SCIEX
COLLISION_ENERGY=140
FORMULA=C12H15NO3
PARENT=222.1125
SPLASH=splash10-05di-9000000000-8e486fc1fe46bc9b042b
NUM_PEAKS=10
COMPOUND_NAME=Carbofuran
SPECTRUM_ID=MSBNK-BAFG-CSL2311095465
ADDUCT=[M+H]+
MS_LEVEL=MS2
PRECURSOR_MZ=222.1125
IONMODE=positive
NOMINAL_MASS=221
PARENT_MASS=221.1052
43.0261 121.0 
52.037 194.0 
58.0336 706.0 
65.0422 219.0 
73.0098 146.0 
74.0183 755.0 
75.0281 243.0 
77.0407 999.0 
78.0481 121.0 
89.0417 121.0 
END IONS

BEGIN IONS
INCHIKEY=NFACJZMKEDPNKN-UHFFFAOYSA-N
INCHI=InChI=1S/C4H8Cl3O4P/c1-10-12(9,11-2)3(8)4(5,6)7/h3,8H,1-2H3
SMILES=COP(=O)(C(C(Cl)(Cl)Cl)O)OC
INSTRUMENT_TYPE=LC-ESI-QTOF
INSTRUMENT=TripleTOF 6600 SCIEX
COLLISION_ENERGY=30
FORMULA=C4H8Cl3O4P
PARENT=256.9299
SPLASH=splash10-0a4i-1900000000-47b1dfbb48429e533cdb
NUM_PEAKS=7
COMPOUND_NAME=Trichlorfon
SPECTRUM_ID=MSBNK-BAFG-CSL23111014335
ADDUCT=[M+H]+
MS_LEVEL=MS2
PRECURSOR_MZ=256.9299
IONMODE=positive
NOMINAL_MASS=256
PARENT_MASS=255.9226
78.9935 123.0 
82.944 33.0 
93.0085 29.0 
109.0043 999.0 
110.9378 12.0 
127.0142 50.0 
220.953 14.0 
END IONS

BEGIN IONS
INCHIKEY=SBPBAQFWLVIOKP-UHFFFAOYSA-N
INCHI=InChI=1S/C9H11Cl3NO3PS/c1-3-14-17(18,15-4-2)16-9-7(11)5-6(10)8(12)13-9/h5H,3-4H2,1-2H3
SMILES=CCO[P](=S)(OCC)Oc1nc(Cl)c(Cl)cc1Cl
INSTRUMENT_TYPE=LC-ESI-QTOF
INSTRUMENT=TripleTOF 5600 SCIEX
COLLISION_ENERGY=90
FORMULA=C9H11Cl3NO3PS
PARENT=349.9336
SPLASH=splash10-0a4j-7900000000-2871daf99ef7c3ea571b
NUM_PEAKS=20
COMPOUND_NAME=Chlorpyrifos
SPECTRUM_ID=MSBNK-BAFG-CSL2311107136
ADDUCT=[M+H]+
MS_LEVEL=MS2
PRECURSOR_MZ=349.9336
IONMODE=positive
NOMINAL_MASS=349
PARENT_MASS=348.9263
61.9836 19.0 
64.9826 129.0 
71.9788 15.0 
78.9429 246.0 
82.9465 10.0 
83.9773 30.0 
83.9863 10.0 
96.9521 999.0 
96.9889 12.0 
106.9454 954.0 
106.9788 14.0 
108.9713 125.0 
118.9442 85.0 
133.9561 92.0 
143.9398 218.0 
150.9159 15.0 
161.95 12.0 
177.9273 14.0 
179.9161 110.0 
197.9276 15.0 
END IONS

BEGIN IONS
INCHIKEY=OEBRKCOSUFCWJD-UHFFFAOYSA-N
INCHI=InChI=1S/C4H7Cl2O4P/c1-8-11(7,9-2)10-3-4(5)6/h3H,1-2H3
SMILES=CO[P](=O)(OC)OC=C(Cl)Cl
INSTRUMENT_TYPE=LC-ESI-QTOF
INSTRUMENT=TripleTOF 5600 SCIEX
COLLISION_ENERGY=90
FORMULA=C4H7Cl2O4P
PARENT=220.9532
SPLASH=splash10-0a4i-9000000000-5475e89133e36b212cdb
NUM_PEAKS=11
COMPOUND_NAME=Dichlorvos
SPECTRUM_ID=MSBNK-BAFG-CSL2311096040
ADDUCT=[M+H]+
MS_LEVEL=MS2
PRECURSOR_MZ=220.9532
IONMODE=positive
NOMINAL_MASS=220
PARENT_MASS=219.9459
51.0301 85.0 
59.98 999.0 
65.0432 159.0 
77.0408 371.0 
78.9967 85.0 
79.0566 63.0 
82.9482 42.0 
91.055 159.0 
94.9456 318.0 
111.9408 42.0 
115.0537 127.0 
END IONS

BEGIN IONS
INCHIKEY=ATROHALUCMTWTB-WYMLVPIESA-N
INCHI=InChI=1S/C12H15N2O3PS/c1-3-15-18(19,16-4-2)17-14-12(10-13)11-8-6-5-7-9-11/h5-9H,3-4H2,1-2H3/b14-12+
SMILES=CCOP(=S)(OCC)O/N=C(\C#N)/C1=CC=CC=C1
INSTRUMENT_TYPE=LC-ESI-QTOF
INSTRUMENT=TripleTOF 6600 SCIEX
COLLISION_ENERGY=50
FORMULA=C12H15N2O3PS
PARENT=299.0614
SPLASH=splash10-004i-9000000000-efeb81fac0e6b590c941
NUM_PEAKS=7
COMPOUND_NAME=Phoxim
SPECTRUM_ID=MSBNK-BAFG-CSL23111017831
ADDUCT=[M+H]+
MS_LEVEL=MS2
PRECURSOR_MZ=299.0614
IONMODE=positive
NOMINAL_MASS=298
PARENT_MASS=298.0541
50.0144 12.0 
51.0223 64.0 
64.9775 9.0 
77.0383 999.0 
78.9386 17.0 
96.9501 279.0 
105.0435 26.0 
END IONS

BEGIN IONS
INCHIKEY=JXSJBGJIGXNWCI-UHFFFAOYSA-N
INCHI=InChI=1S/C10H19O6PS2/c1-5-15-9(11)7-8(10(12)16-6-2)19-17(18,13-3)14-4/h8H,5-7H2,1-4H3
SMILES=CCOC(=O)CC(C(=O)OCC)SP(=S)(OC)OC
INSTRUMENT_TYPE=LC-ESI-QTOF
INSTRUMENT=TripleTOF 5600 SCIEX
COLLISION_ENERGY=40
FORMULA=C10H19O6PS2
PARENT=331.0433
SPLASH=splash10-006t-9700000000-15ad780eee99e309d6de
NUM_PEAKS=16
COMPOUND_NAME=Malathion
SPECTRUM_ID=MSBNK-BAFG-CSL23111010800
ADDUCT=[M+H]+
MS_LEVEL=MS2
PRECURSOR_MZ=331.0433
IONMODE=positive
NOMINAL_MASS=330
PARENT_MASS=330.0361
71.0108 35.0 
78.9948 38.0 
86.9887 29.0 
98.9851 29.0 
99.0072 999.0 
99.0431 14.0 
108.0436 11.0 
110.9657 32.0 
114.985 32.0 
117.0005 23.0 
118.963 35.0 
124.9821 684.0 
127.0399 77.0 
142.9915 20.0 
158.9701 17.0 
210.9652 14.0 
END IONS

BEGIN IONS
INCHIKEY=LCCNCVORNKJIRZ-UHFFFAOYSA-N
INCHI=InChI=1S/C10H14NO5PS/c1-3-14-17(18,15-4-2)16-10-7-5-9(6-8-10)11(12)13/h5-8H,3-4H2,1-2H3
SMILES=CCOP(=S)(OCC)Oc1ccc(cc1)[N+](=O)[O-]
INSTRUMENT_TYPE=LC-ESI-QTOF
INSTRUMENT=TripleTOF 5600 SCIEX
COLLISION_ENERGY=80
FORMULA=C10H14NO5PS
PARENT=292.0403
SPLASH=splash10-016u-9100000000-152a926925da4b2f26f7
NUM_PEAKS=18
COMPOUND_NAME=Parathion
SPECTRUM_ID=MSBNK-BAFG-CSL2311093074
ADDUCT=[M+H]+
MS_LEVEL=MS2
PRECURSOR_MZ=292.0403
IONMODE=positive
NOMINAL_MASS=291
PARENT_MASS=291.033
64.9818 189.0 
65.0419 723.0 
66.0503 861.0 
74.0194 137.0 
75.0254 602.0 
77.0419 137.0 
78.9424 189.0 
93.0337 258.0 
94.0423 999.0 
96.9506 447.0 
97.0144 189.0 
108.004 68.0 
109.0099 137.0 
109.0292 86.0 
110.0172 189.0 
123.0325 68.0 
125.0082 68.0 
154.98 68.0 
END IONS

BEGIN IONS
INCHIKEY=ATROHALUCMTWTB-WYMLVPIESA-N
INCHI=InChI=1S/C12H15N2O3PS/c1-3-15-18(19,16-4-2)17-14-12(10-13)11-8-6-5-7-9-11/h5-9H,3-4H2,1-2H3/b14-12+
SMILES=CCOP(=S)(OCC)O/N=C(\C#N)/C1=CC=CC=C1
INSTRUMENT_TYPE=LC-ESI-QTOF
INSTRUMENT=TripleTOF 6600 SCIEX
COLLISION_ENERGY=120
FORMULA=C12H15N2O3PS
PARENT=299.0614
SPLASH=splash10-0udi-9000000000-02a723ee810f417e2c45
NUM_PEAKS=10
COMPOUND_NAME=Phoxim
SPECTRUM_ID=MSBNK-BAFG-CSL23111017829
ADDUCT=[M+H]+
MS_LEVEL=MS2
PRECURSOR_MZ=299.0614
IONMODE=positive
NOMINAL_MASS=298
PARENT_MASS=298.0541
46.9669 60.0 
49.0064 127.0 
50.0143 638.0 
51.0223 999.0 
62.9622 24.0 
64.9774 29.0 
74.0138 22.0 
77.0374 67.0 
78.9395 24.0 
80.9737 13.0 
END IONS

BEGIN IONS
INCHIKEY=YFBPRJGDJKVWAH-UHFFFAOYSA-N
INCHI=InChI=1S/C11H15NO2S/c1-7-5-9(14-11(13)12-3)6-8(2)10(7)15-4/h5-6H,1-4H3,(H,12,13)
SMILES=Cc1cc(cc(c1SC)C)OC(=O)NC
INSTRUMENT_TYPE=LC-ESI-QTOF
INSTRUMENT=TripleTOF 6600 SCIEX
COLLISION_ENERGY=20
FORMULA=C11H15NO2S
PARENT=226.0896
SPLASH=splash10-00xr-0900000000-7d13f00a2e0708be7015
NUM_PEAKS=10
COMPOUND_NAME=Methiocarb
SPECTRUM_ID=MSBNK-BAFG-CSL23111027288
ADDUCT=[M+H]+
MS_LEVEL=MS2
PRECURSOR_MZ=226.0896
IONMODE=positive
NOMINAL_MASS=225
PARENT_MASS=225.0823
77.0358 24.0 
91.051 26.0 
93.0668 47.0 
107.0463 16.0 
121.0621 999.0 
122.0699 197.0 
123.0783 14.0 
153.0349 11.0 
154.0419 10.0 
169.0662 871.0 
END IONS

BEGIN IONS
INCHIKEY=QGLZXHRNAYXIBU-UHFFFAOYSA-N
INCHI=InChI=1S/C7H14N2O2S/c1-7(2,12-4)5-9-11-6(10)8-3/h5H,1-4H3,(H,8,10)
SMILES=CC(C)(C=NOC(=O)NC)SC
INSTRUMENT_TYPE=LC-ESI-QTOF
INSTRUMENT=TripleTOF 6600 SCIEX
COLLISION_ENERGY=140
FORMULA=C7H14N2O2S
PARENT=213.0668
SPLASH=splash10-0a4i-9000000000-8dcec459a26cf2cacb32
NUM_PEAKS=9
COMPOUND_NAME=Aldicarb
SPECTRUM_ID=MSBNK-BAFG-CSL23111016272
ADDUCT=[M+Na]+
MS_LEVEL=MS2
PRECURSOR_MZ=213.0668
IONMODE=positive
NOMINAL_MASS=190
PARENT_MASS=190.0776
36.0006 63.0 
37.0078 151.0 
38.0152 113.0 
39.0234 278.0 
44.9797 265.0 
45.9748 63.0 
46.9954 101.0 
57.9874 404.0 
58.9954 999.0 
END IONS

BEGIN IONS
INCHIKEY=JXSJBGJIGXNWCI-UHFFFAOYSA-N
INCHI=InChI=1S/C10H19O6PS2/c1-5-15-9(11)7-8(10(12)16-6-2)19-17(18,13-3)14-4/h8H,5-7H2,1-4H3
SMILES=CCOC(=O)CC(C(=O)OCC)SP(=S)(OC)OC
INSTRUMENT_TYPE=LC-ESI-QTOF
INSTRUMENT=TripleTOF 5600 SCIEX
COLLISION_ENERGY=50
FORMULA=C10H19O6PS2
PARENT=331.0433
SPLASH=splash10-006t-9600000000-9214615c35422de0629e
NUM_PEAKS=12
COMPOUND_NAME=Malathion
SPECTRUM_ID=MSBNK-BAFG-CSL23111010798
ADDUCT=[M+H]+
MS_LEVEL=MS2
PRECURSOR_MZ=331.0433
IONMODE=positive
NOMINAL_MASS=330
PARENT_MASS=330.0361
46.9943 22.0 
71.0114 75.0 
78.9928 132.0 
86.9891 44.0 
98.9853 35.0 
99.0069 999.0 
110.9656 39.0 
114.9841 26.0 
116.9997 35.0 
118.9627 39.0 
124.9814 786.0 
127.0384 48.0 
END IONS

BEGIN IONS
INCHIKEY=SBPBAQFWLVIOKP-UHFFFAOYSA-N
INCHI=InChI=1S/C9H11Cl3NO3PS/c1-3-14-17(18,15-4-2)16-9-7(11)5-6(10)8(12)13-9/h5H,3-4H2,1-2H3
SMILES=CCO[P](=S)(OCC)Oc1nc(Cl)c(Cl)cc1Cl
INSTRUMENT_TYPE=LC-ESI-QTOF
INSTRUMENT=TripleTOF 5600 SCIEX
COLLISION_ENERGY=50
FORMULA=C9H11Cl3NO3PS
PARENT=349.9336
SPLASH=splash10-0002-5900000000-6857434d7b6b9431b0fb
NUM_PEAKS=15
COMPOUND_NAME=Chlorpyrifos
SPECTRUM_ID=MSBNK-BAFG-CSL2311107141
ADDUCT=[M+H]+
MS_LEVEL=MS2
PRECURSOR_MZ=349.9336
IONMODE=positive
NOMINAL_MASS=349
PARENT_MASS=348.9263
78.9424 35.0 
96.9522 999.0 
106.9448 100.0 
124.9821 60.0 
133.9552 176.0 
143.9427 10.0 
150.9173 11.0 
153.0149 10.0 
161.9503 214.0 
177.9278 37.0 
179.9158 74.0 
197.9274 864.0 
211.8857 14.0 
213.9037 89.0 
275.8585 26.0 
END IONS

BEGIN IONS
INCHIKEY=SBPBAQFWLVIOKP-UHFFFAOYSA-N
INCHI=InChI=1S/C9H11Cl3NO3PS/c1-3-14-17(18,15-4-2)16-9-7(11)5-6(10)8(12)13-9/h5H,3-4H2,1-2H3
SMILES=CCO[P](=S)(OCC)Oc1nc(Cl)c(Cl)cc1Cl
INSTRUMENT_TYPE=LC-ESI-QTOF
INSTRUMENT=TripleTOF 5600 SCIEX
COLLISION_ENERGY=40
FORMULA=C9H11Cl3NO3PS
PARENT=349.9336
SPLASH=splash10-0002-4910000000-2f5eb9ece8121e604bf4
NUM_PEAKS=13
COMPOUND_NAME=Chlorpyrifos
SPECTRUM_ID=MSBNK-BAFG-CSL2311107145
ADDUCT=[M+H]+
MS_LEVEL=MS2
PRECURSOR_MZ=349.9336
IONMODE=positive
NOMINAL_MASS=349
PARENT_MASS=348.9263
78.9436 20.0 
96.952 684.0 
106.9457 47.0 
124.982 158.0 
133.9553 80.0 
153.0128 33.0 
161.9507 95.0 
177.9288 15.0 
179.9168 38.0 
197.9271 999.0 
213.9043 109.0 
275.8586 46.0 
293.8709 66.0 
END IONS

BEGIN IONS
INCHIKEY=SBPBAQFWLVIOKP-UHFFFAOYSA-N
INCHI=InChI=1S/C9H11Cl3NO3PS/c1-3-14-17(18,15-4-2)16-9-7(11)5-6(10)8(12)13-9/h5H,3-4H2,1-2H3
SMILES=CCO[P](=S)(OCC)Oc1nc(Cl)c(Cl)cc1Cl
INSTRUMENT_TYPE=LC-ESI-QTOF
INSTRUMENT=TripleTOF 5600 SCIEX
COLLISION_ENERGY=20
FORMULA=C9H11Cl3NO3PS
PARENT=349.9336
SPLASH=splash10-006t-0925000000-970bbe49bc5435fe2c49
NUM_PEAKS=9
COMPOUND_NAME=Chlorpyrifos
SPECTRUM_ID=MSBNK-BAFG-CSL2311107138
ADDUCT=[M+H]+
MS_LEVEL=MS2
PRECURSOR_MZ=349.9336
IONMODE=positive
NOMINAL_MASS=349
PARENT_MASS=348.9263
96.9517 98.0 
124.9822 271.0 
153.0136 347.0 
197.9279 999.0 
213.9045 26.0 
275.8609 29.0 
293.8715 409.0 
321.9026 532.0 
349.9334 527.0 
END IONS

BEGIN IONS
INCHIKEY=SBPBAQFWLVIOKP-UHFFFAOYSA-N
INCHI=InChI=1S/C9H11Cl3NO3PS/c1-3-14-17(18,15-4-2)16-9-7(11)5-6(10)8(12)13-9/h5H,3-4H2,1-2H3
SMILES=CCO[P](=S)(OCC)Oc1nc(Cl)c(Cl)cc1Cl
INSTRUMENT_TYPE=LC-ESI-QTOF
INSTRUMENT=TripleTOF 5600 SCIEX
COLLISION_ENERGY=40
FORMULA=C9H11Cl3NO3PS
PARENT=349.9336
SPLASH=splash10-0002-4910000000-6127e97926873c633c4f
NUM_PEAKS=11
COMPOUND_NAME=Chlorpyrifos
SPECTRUM_ID=MSBNK-BAFG-CSL2311107149
ADDUCT=[M+H]+
MS_LEVEL=MS2
PRECURSOR_MZ=349.9336
IONMODE=positive
NOMINAL_MASS=349
PARENT_MASS=348.9263
96.9524 670.0 
106.9447 16.0 
124.982 118.0 
133.9568 25.0 
153.0146 13.0 
161.9512 64.0 
179.9157 12.0 
197.928 999.0 
213.9047 106.0 
275.8609 49.0 
293.8681 12.0 
END IONS

BEGIN IONS
INCHIKEY=NFACJZMKEDPNKN-UHFFFAOYSA-N
INCHI=InChI=1S/C4H8Cl3O4P/c1-10-12(9,11-2)3(8)4(5,6)7/h3,8H,1-2H3
SMILES=COP(=O)(C(C(Cl)(Cl)Cl)O)OC
INSTRUMENT_TYPE=LC-ESI-QTOF
INSTRUMENT=TripleTOF 6600 SCIEX
COLLISION_ENERGY=20
FORMULA=C4H8Cl3O4P
PARENT=256.9299
SPLASH=splash10-0a4i-0940000000-116b3cce0baa47013575
NUM_PEAKS=6
COMPOUND_NAME=Trichlorfon
SPECTRUM_ID=MSBNK-BAFG-CSL23111014339
ADDUCT=[M+H]+
MS_LEVEL=MS2
PRECURSOR_MZ=256.9299
IONMODE=positive
NOMINAL_MASS=256
PARENT_MASS=255.9226
78.9934 28.0 
93.0085 10.0 
109.0044 999.0 
127.0144 43.0 
220.9529 370.0 
256.9297 141.0 
END IONS

BEGIN IONS
INCHIKEY=SBPBAQFWLVIOKP-UHFFFAOYSA-N
INCHI=InChI=1S/C9H11Cl3NO3PS/c1-3-14-17(18,15-4-2)16-9-7(11)5-6(10)8(12)13-9/h5H,3-4H2,1-2H3
SMILES=CCO[P](=S)(OCC)Oc1nc(Cl)c(Cl)cc1Cl
INSTRUMENT_TYPE=LC-ESI-QTOF
INSTRUMENT=TripleTOF 5600 SCIEX
COLLISION_ENERGY=120
FORMULA=C9H11Cl3NO3PS
PARENT=349.9336
SPLASH=splash10-0a4i-8900000000-039878486150c954a258
NUM_PEAKS=20
COMPOUND_NAME=Chlorpyrifos
SPECTRUM_ID=MSBNK-BAFG-CSL2311107143
ADDUCT=[M+H]+
MS_LEVEL=MS2
PRECURSOR_MZ=349.9336
IONMODE=positive
NOMINAL_MASS=349
PARENT_MASS=348.9263
61.9843 42.0 
64.9827 260.0 
65.006 27.0 
70.9711 19.0 
71.9788 97.0 
75.0117 15.0 
78.9419 365.0 
78.9666 15.0 
82.9455 15.0 
83.977 116.0 
96.9514 606.0 
97.9781 15.0 
106.9449 999.0 
106.9867 15.0 
108.9718 365.0 
109.9791 54.0 
117.937 19.0 
118.9428 66.0 
143.9397 81.0 
144.9452 19.0 
END IONS

BEGIN IONS
INCHIKEY=ATROHALUCMTWTB-WYMLVPIESA-N
INCHI=InChI=1S/C12H15N2O3PS/c1-3-15-18(19,16-4-2)17-14-12(10-13)11-8-6-5-7-9-11/h5-9H,3-4H2,1-2H3/b14-12+
SMILES=CCOP(=S)(OCC)O/N=C(\C#N)/C1=CC=CC=C1
INSTRUMENT_TYPE=LC-ESI-QTOF
INSTRUMENT=TripleTOF 6600 SCIEX
COLLISION_ENERGY=30
FORMULA=C12H15N2O3PS
PARENT=299.0614
SPLASH=splash10-004i-9200000000-f4e0949184edea5e5194
NUM_PEAKS=6
COMPOUND_NAME=Phoxim
SPECTRUM_ID=MSBNK-BAFG-CSL23111017836
ADDUCT=[M+H]+
MS_LEVEL=MS2
PRECURSOR_MZ=299.0614
IONMODE=positive
NOMINAL_MASS=298
PARENT_MASS=298.0541
51.0222 22.0 
77.0382 999.0 
96.9503 664.0 
105.0437 34.0 
124.9807 27.0 
129.0441 364.0 
END IONS

BEGIN IONS
INCHIKEY=LCCNCVORNKJIRZ-UHFFFAOYSA-N
INCHI=InChI=1S/C10H14NO5PS/c1-3-14-17(18,15-4-2)16-10-7-5-9(6-8-10)11(12)13/h5-8H,3-4H2,1-2H3
SMILES=CCOP(=S)(OCC)Oc1ccc(cc1)[N+](=O)[O-]
INSTRUMENT_TYPE=LC-ESI-QTOF
INSTRUMENT=TripleTOF 5600 SCIEX
COLLISION_ENERGY=110
FORMULA=C10H14NO5PS
PARENT=292.0403
SPLASH=splash10-01di-9000000000-82b3b13d909052b58117
NUM_PEAKS=10
COMPOUND_NAME=Parathion
SPECTRUM_ID=MSBNK-BAFG-CSL2311093071
ADDUCT=[M+H]+
MS_LEVEL=MS2
PRECURSOR_MZ=292.0403
IONMODE=positive
NOMINAL_MASS=291
PARENT_MASS=291.033
64.9807 237.0 
65.0424 999.0 
66.0498 475.0 
74.0184 666.0 
74.0293 190.0 
75.0239 666.0 
76.0331 190.0 
77.0432 237.0 
78.9436 333.0 
94.0424 285.0 
END IONS

BEGIN IONS
INCHIKEY=CVXBEEMKQHEXEN-UHFFFAOYSA-N
INCHI=InChI=1S/C12H11NO2/c1-13-12(14)15-11-8-4-6-9-5-2-3-7-10(9)11/h2-8H,1H3,(H,13,14)
SMILES=CNC(=O)Oc1cccc2ccccc12
INSTRUMENT_TYPE=LC-ESI-QTOF
INSTRUMENT=TripleTOF 5600 SCIEX
COLLISION_ENERGY=40
FORMULA=C12H11NO2
PARENT=202.0863
SPLASH=splash10-00or-0900000000-c9f500d26fb53f60f2aa
NUM_PEAKS=10
COMPOUND_NAME=Carbaryl
SPECTRUM_ID=MSBNK-BAFG-CSL2311095491
ADDUCT=[M+H]+
MS_LEVEL=MS2
PRECURSOR_MZ=202.0863
IONMODE=positive
NOMINAL_MASS=201
PARENT_MASS=201.079
77.0403 28.0 
91.0554 95.0 
115.0541 238.0 
116.0614 13.0 
117.07 329.0 
126.0456 19.0 
127.0548 999.0 
144.0572 13.0 
145.0646 216.0 
155.0598 51.0 
END IONS

BEGIN IONS
INCHIKEY=FHIVAFMUCKRCQO-UHFFFAOYSA-N
INCHI=InChI=1S/C12H21N2O3PS/c1-6-15-18(19,16-7-2)17-11-8-10(5)13-12(14-11)9(3)4/h8-9H,6-7H2,1-5H3
SMILES=CCO[P](=S)(OCC)Oc1cc(C)nc(n1)C(C)C
INSTRUMENT_TYPE=LC-ESI-QTOF
INSTRUMENT=TripleTOF 5600 SCIEX
COLLISION_ENERGY=30
FORMULA=C12H21N2O3PS
PARENT=305.1083
SPLASH=splash10-0gb9-1901000000-58ff704cef8ce9a15c8a
NUM_PEAKS=13
COMPOUND_NAME=Diazinon
SPECTRUM_ID=MSBNK-BAFG-CSL2311094555
ADDUCT=[M+H]+
MS_LEVEL=MS2
PRECURSOR_MZ=305.1083
IONMODE=positive
NOMINAL_MASS=304
PARENT_MASS=304.1011
84.0466 43.0 
96.9526 346.0 
100.0222 53.0 
109.0048 19.0 
124.9825 189.0 
153.0127 25.0 
153.1024 792.0 
169.0794 999.0 
181.133 43.0 
231.0345 25.0 
249.0448 46.0 
277.0761 15.0 
305.1078 282.0 
END IONS

BEGIN IONS
INCHIKEY=OEBRKCOSUFCWJD-UHFFFAOYSA-N
INCHI=InChI=1S/C4H7Cl2O4P/c1-8-11(7,9-2)10-3-4(5)6/h3H,1-2H3
SMILES=CO[P](=O)(OC)OC=C(Cl)Cl
INSTRUMENT_TYPE=LC-ESI-QTOF
INSTRUMENT=TripleTOF 5600 SCIEX
COLLISION_ENERGY=100
FORMULA=C4H7Cl2O4P
PARENT=220.9532
SPLASH=splash10-0a4i-9000000000-c38f333c12d08a559ae1
NUM_PEAKS=8
COMPOUND_NAME=Dichlorvos
SPECTRUM_ID=MSBNK-BAFG-CSL2311096046
ADDUCT=[M+H]+
MS_LEVEL=MS2
PRECURSOR_MZ=220.9532
IONMODE=positive
NOMINAL_MASS=220
PARENT_MASS=219.9459
46.9733 97.0 
51.0289 146.0 
59.9801 999.0 
65.0412 109.0 
77.0411 389.0 
91.0541 85.0 
94.9446 146.0 
115.0512 48.0 
END IONS

BEGIN IONS
INCHIKEY=DUEPRVBVGDRKAG-UHFFFAOYSA-N
INCHI=InChI=1S/C12H15NO3/c1-12(2)7-8-5-4-6-9(10(8)16-12)15-11(14)13-3/h4-6H,7H2,1-3H3,(H,13,14)
SMILES=CNC(=O)Oc1cccc2CC(C)(C)Oc12
INSTRUMENT_TYPE=LC-ESI-QTOF
INSTRUMENT=TripleTOF 5600 SCIEX
COLLISION_ENERGY=130
FORMULA=C12H15NO3
PARENT=222.1125
SPLASH=splash10-05di-9000000000-63fada75602949147a79
NUM_PEAKS=9
COMPOUND_NAME=Carbofuran
SPECTRUM_ID=MSBNK-BAFG-CSL2311095456
ADDUCT=[M+H]+
MS_LEVEL=MS2
PRECURSOR_MZ=222.1125
IONMODE=positive
NOMINAL_MASS=221
PARENT_MASS=221.1052
58.0335 605.0 
65.0425 365.0 
73.0114 56.0 
74.0178 520.0 
75.0265 84.0 
77.0404 999.0 
78.0488 56.0 
86.0185 70.0 
89.0402 84.0 
END IONS

BEGIN IONS
INCHIKEY=YASYVMFAVPKPKE-UHFFFAOYSA-N
INCHI=InChI=1S/C4H10NO3PS/c1-4(6)5-9(7,8-2)10-3/h1-3H3,(H,5,6,7)
SMILES=CC(=O)NP(=O)(OC)SC
INSTRUMENT_TYPE=LC-ESI-QTOF
INSTRUMENT=TripleTOF 6600 SCIEX
COLLISION_ENERGY=40
FORMULA=C4H10NO3PS
PARENT=184.0192
SPLASH=splash10-0007-9200000000-dee2b9a5f4391e5f30d3
NUM_PEAKS=11
COMPOUND_NAME=Acephate
SPECTRUM_ID=MSBNK-BAFG-CSL23111014576
ADDUCT=[M+H]+
MS_LEVEL=MS2
PRECURSOR_MZ=184.0192
IONMODE=positive
NOMINAL_MASS=183
PARENT_MASS=183.0119
42.0321 169.0 
44.9777 94.0 
46.9932 245.0 
49.0094 697.0 
64.9768 75.0 
78.9916 94.0 
94.005 320.0 
94.9866 999.0 
110.9629 207.0 
124.9793 320.0 
142.9919 245.0 
END IONS

BEGIN IONS
INCHIKEY=OEBRKCOSUFCWJD-UHFFFAOYSA-N
INCHI=InChI=1S/C4H7Cl2O4P/c1-8-11(7,9-2)10-3-4(5)6/h3H,1-2H3
SMILES=CO[P](=O)(OC)OC=C(Cl)Cl
INSTRUMENT_TYPE=LC-ESI-QTOF
INSTRUMENT=TripleTOF 5600 SCIEX
COLLISION_ENERGY=110
FORMULA=C4H7Cl2O4P
PARENT=220.9532
SPLASH=splash10-0a4i-9000000000-32d0dc52dd68acc24e28
NUM_PEAKS=5
COMPOUND_NAME=Dichlorvos
SPECTRUM_ID=MSBNK-BAFG-CSL2311096045
ADDUCT=[M+H]+
MS_LEVEL=MS2
PRECURSOR_MZ=220.9532
IONMODE=positive
NOMINAL_MASS=220
PARENT_MASS=219.9459
59.9806 999.0 
65.0434 88.0 
77.0409 189.0 
91.0554 75.0 
94.9453 75.0 
END IONS

BEGIN IONS
INCHIKEY=CVXBEEMKQHEXEN-UHFFFAOYSA-N
INCHI=InChI=1S/C12H11NO2/c1-13-12(14)15-11-8-4-6-9-5-2-3-7-10(9)11/h2-8H,1H3,(H,13,14)
SMILES=CNC(=O)Oc1cccc2ccccc12
INSTRUMENT_TYPE=LC-ESI-QTOF
INSTRUMENT=TripleTOF 5600 SCIEX
COLLISION_ENERGY=70
FORMULA=C12H11NO2
PARENT=202.0863
SPLASH=splash10-00or-9800000000-4ff1790507898d423f16
NUM_PEAKS=25
COMPOUND_NAME=Carbaryl
SPECTRUM_ID=MSBNK-BAFG-CSL2311095493
ADDUCT=[M+H]+
MS_LEVEL=MS2
PRECURSOR_MZ=202.0863
IONMODE=positive
NOMINAL_MASS=201
PARENT_MASS=201.079
51.028 122.0 
58.0328 43.0 
63.043 11.0 
65.0416 224.0 
74.0172 58.0 
75.0254 195.0 
76.0343 14.0 
77.041 879.0 
87.0259 17.0 
89.0394 113.0 
91.0552 652.0 
91.0853 17.0 
99.0243 17.0 
101.0382 189.0 
102.0482 14.0 
114.0536 17.0 
115.0536 999.0 
116.0605 58.0 
117.0691 32.0 
125.0386 20.0 
126.0452 390.0 
127.0533 553.0 
128.061 17.0 
129.0439 17.0 
144.0543 20.0 
END IONS

BEGIN IONS
SYNON=[(Z)-2-chloro-1-(2,4-dichlorophenyl)ethenyl] diethyl phosphate
INCHIKEY=FSAVDKDHPDSCTO-WQLSENKSSA-N
INCHI=InChI=1S/C12H14Cl3O4P/c1-3-17-20(16,18-4-2)19-12(8-13)10-6-5-9(14)7-11(10)15/h5-8H,3-4H2,1-2H3/b12-8-
SMILES=CCOP(=O)(OCC)O\C(=C/Cl)c1ccc(Cl)cc1Cl
INSTRUMENT_TYPE=LC-ESI-QFT
INSTRUMENT=Q Exactive Plus Orbitrap Thermo Scientific
COLLISION_ENERGY=35  (nominal)
FORMULA=C12H14Cl3O4P
PARENT=358.9768
SPLASH=splash10-052b-5921000000-ca673e01864845cb768e
NUM_PEAKS=15
COMPOUND_NAME=Chlorfenvinphos
SPECTRUM_ID=MSBNK-CASMI_2016-SM847901
ADDUCT=[M+H]+
MS_LEVEL=MS2
PRECURSOR_MZ=358.9768
IONMODE=positive
NOMINAL_MASS=358
PARENT_MASS=357.96953
80.9737 2.0 
98.9842 999.0 
109.0048 7.0 
116.9946 3.0 
127.0155 458.0 
131.0104 3.0 
155.0467 758.0 
168.9606 7.0 
169.9684 389.0 
196.9667 1.0 
200.9863 1.0 
204.9373 453.0 
236.9634 1.0 
330.9455 34.0 
358.9769 163.0 
END IONS

BEGIN IONS
SYNON=(3,5-dimethyl-4-methylsulfanylphenyl) N-methylcarbamate
INCHIKEY=YFBPRJGDJKVWAH-UHFFFAOYSA-N
INCHI=InChI=1S/C11H15NO2S/c1-7-5-9(14-11(13)12-3)6-8(2)10(7)15-4/h5-6H,1-4H3,(H,12,13)
SMILES=CNC(=O)Oc1cc(C)c(SC)c(C)c1
INSTRUMENT_TYPE=LC-ESI-QFT
INSTRUMENT=Q Exactive Plus Orbitrap Thermo Scientific
COLLISION_ENERGY=35  (nominal)
FORMULA=C11H15NO2S
PARENT=226.0896
SPLASH=splash10-00xr-0900000000-22c06bb67ebf74b76c38
NUM_PEAKS=22
COMPOUND_NAME=Methiocarb
SPECTRUM_ID=MSBNK-CASMI_2016-SM843301
ADDUCT=[M+H]+
MS_LEVEL=MS2
PRECURSOR_MZ=226.0896
IONMODE=positive
NOMINAL_MASS=225
PARENT_MASS=225.08235
53.0388 4.0 
67.0544 1.0 
77.0385 9.0 
79.0541 1.0 
91.0542 50.0 
93.0699 103.0 
95.0492 14.0 
95.0855 2.0 
103.0541 1.0 
105.0448 4.0 
107.0491 17.0 
109.065 1.0 
121.0648 999.0 
122.0726 250.0 
123.0805 12.0 
139.0753 2.0 
141.0734 4.0 
153.037 7.0 
153.091 16.0 
154.0446 12.0 
169.0681 926.0 
226.0896 5.0 
END IONS

BEGIN IONS
SYNON=diethoxyphosphinothioylsulfanylmethylsulfanyl-diethoxy-sulfanylidene-$l^{5}-phosphane
INCHIKEY=RIZMRRKBZQXFOY-UHFFFAOYSA-N
INCHI=InChI=1S/C9H22O4P2S4/c1-5-10-14(16,11-6-2)18-9-19-15(17,12-7-3)13-8-4/h5-9H2,1-4H3
SMILES=CCOP(=S)(OCC)SCSP(=S)(OCC)OCC
INSTRUMENT_TYPE=LC-ESI-QFT
INSTRUMENT=Q Exactive Plus Orbitrap Thermo Scientific
COLLISION_ENERGY=35  (nominal)
FORMULA=C9H22O4P2S4
PARENT=384.9949
SPLASH=splash10-01vn-0900000000-ec58bd8bbff6a945898d
NUM_PEAKS=38
COMPOUND_NAME=Ethion
SPECTRUM_ID=MSBNK-CASMI_2016-SM847702
ADDUCT=[M+H]+
MS_LEVEL=MS2
PRECURSOR_MZ=384.9949
IONMODE=positive
NOMINAL_MASS=384
PARENT_MASS=383.98762
63.0265 4.0 
64.979 5.0 
75.0263 19.0 
78.9402 1.0 
78.9671 2.0 
96.9508 138.0 
110.9664 16.0 
112.9998 4.0 
114.9613 691.0 
115.9677 1.0 
124.9821 28.0 
126.9436 25.0 
128.9228 12.0 
128.977 50.0 
132.9717 1.0 
140.9595 1.0 
142.9385 999.0 
153.0133 36.0 
154.9748 19.0 
156.9541 6.0 
157.0085 6.0 
158.9698 9.0 
170.9698 502.0 
171.0239 135.0 
174.9105 16.0 
174.9644 1.0 
184.9854 7.0 
185.0396 20.0 
187.001 4.0 
199.0011 912.0 
202.9415 8.0 
215.0324 96.0 
230.9732 57.0 
276.9878 1.0 
292.9652 6.0 
338.9536 1.0 
339.0076 11.0 
384.9949 4.0 
END IONS

BEGIN IONS
SYNON=2,2-dichloroethenyl dimethyl phosphate
INCHIKEY=OEBRKCOSUFCWJD-UHFFFAOYSA-N
INCHI=InChI=1S/C4H7Cl2O4P/c1-8-11(7,9-2)10-3-4(5)6/h3H,1-2H3
SMILES=COP(=O)(OC)OC=C(Cl)Cl
INSTRUMENT_TYPE=LC-ESI-QFT
INSTRUMENT=Q Exactive Plus Orbitrap Thermo Scientific
COLLISION_ENERGY=35  (nominal)
FORMULA=C4H7Cl2O4P
PARENT=220.9532
SPLASH=splash10-004i-0930000000-62f725b3cb5b2d33fd64
NUM_PEAKS=16
COMPOUND_NAME=Dichlorvos
SPECTRUM_ID=MSBNK-CASMI_2016-SM847202
ADDUCT=[M+H]+
MS_LEVEL=MS2
PRECURSOR_MZ=220.9532
IONMODE=positive
NOMINAL_MASS=220
PARENT_MASS=219.94590
76.9788 6.0 
78.9943 68.0 
94.9449 2.0 
94.9894 1.0 
96.9604 11.0 
97.0049 2.0 
98.9841 1.0 
108.9607 1.0 
109.0047 3.0 
112.9997 10.0 
127.0154 999.0 
128.0218 3.0 
130.9659 1.0 
144.9815 67.0 
188.9269 1.0 
220.9531 439.0 
END IONS

BEGIN IONS
SYNON=dimethoxy-(3-methyl-4-methylsulfanylphenoxy)-sulfanylidene-$l^{5}-phosphane
INCHIKEY=PNVJTZOFSHSLTO-UHFFFAOYSA-N
INCHI=InChI=1S/C10H15O3PS2/c1-8-7-9(5-6-10(8)16-4)13-14(15,11-2)12-3/h5-7H,1-4H3
SMILES=COP(=S)(OC)Oc1ccc(SC)c(C)c1
INSTRUMENT_TYPE=LC-ESI-QFT
INSTRUMENT=Q Exactive Plus Orbitrap Thermo Scientific
COLLISION_ENERGY=35  (nominal)
FORMULA=C10H15O3PS2
PARENT=279.0273
SPLASH=splash10-001i-0290000000-9da11dc2725fc111b8c4
NUM_PEAKS=56
COMPOUND_NAME=Fenthion
SPECTRUM_ID=MSBNK-CASMI_2016-SM848001
ADDUCT=[M+H]+
MS_LEVEL=MS2
PRECURSOR_MZ=279.0273
IONMODE=positive
NOMINAL_MASS=278
PARENT_MASS=278.02002
58.9951 9.0 
61.0108 4.0 
62.0187 1.0 
77.0388 1.0 
78.0466 1.0 
78.9944 8.0 
79.0543 3.0 
91.0542 19.0 
92.0621 1.0 
93.01 1.0 
93.0699 8.0 
95.0492 1.0 
97.0107 26.0 
103.0542 11.0 
104.062 8.0 
105.0699 2.0 
107.0492 2.0 
109.0107 4.0 
109.0648 8.0 
110.0183 3.0 
121.0106 1.0 
122.0184 14.0 
124.982 11.0 
125.0419 25.0 
135.0262 5.0 
136.0344 2.0 
137.0419 20.0 
138.0133 7.0 
138.0497 13.0 
142.9926 64.0 
149.0233 8.0 
152.0291 1.0 
153.0368 231.0 
154.0444 5.0 
155.0525 20.0 
157.0083 5.0 
168.9871 38.0 
183.0207 5.0 
185.0456 2.0 
185.9899 53.0 
198.9979 5.0 
200.0055 31.0 
200.9771 8.0 
201.0136 4.0 
201.0464 6.0 
213.0131 2.0 
214.9924 1.0 
216.0005 452.0 
217.0083 19.0 
219.0238 2.0 
219.0569 7.0 
231.024 999.0 
231.9774 3.0 
247.0012 15.0 
264.0043 2.0 
279.0274 479.0 
END IONS

BEGIN IONS
SYNON=[2-(dimethylamino)-5,6-dimethylpyrimidin-4-yl] N,N-dimethylcarbamate
INCHIKEY=YFGYUFNIOHWBOB-UHFFFAOYSA-N
INCHI=InChI=1S/C11H18N4O2/c1-7-8(2)12-10(14(3)4)13-9(7)17-11(16)15(5)6/h1-6H3
SMILES=CN(C)C(=O)Oc1nc(nc(C)c1C)N(C)C
INSTRUMENT_TYPE=LC-ESI-QFT
INSTRUMENT=Q Exactive Plus Orbitrap Thermo Scientific
COLLISION_ENERGY=35  (nominal)
FORMULA=C11H18N4O2
PARENT=239.1503
SPLASH=splash10-00ei-9550000000-72eba4605a0bd796f47c
NUM_PEAKS=14
COMPOUND_NAME=Pirimicarb
SPECTRUM_ID=MSBNK-CASMI_2016-SM841701
ADDUCT=[M+H]+
MS_LEVEL=MS2
PRECURSOR_MZ=239.1503
IONMODE=positive
NOMINAL_MASS=238
PARENT_MASS=238.14298
56.0132 3.0 
72.0445 999.0 
83.024 5.0 
85.076 46.0 
109.0761 21.0 
137.0709 34.0 
138.0788 6.0 
150.1026 23.0 
152.0819 2.0 
166.0975 4.0 
167.1054 9.0 
182.1289 527.0 
195.1605 43.0 
239.1503 590.0 
END IONS

BEGIN IONS
SYNON=4-dimethoxyphosphinothioyloxy-N,N-diethyl-6-methylpyrimidin-2-amine
INCHIKEY=QHOQHJPRIBSPCY-UHFFFAOYSA-N
INCHI=InChI=1S/C11H20N3O3PS/c1-6-14(7-2)11-12-9(3)8-10(13-11)17-18(19,15-4)16-5/h8H,6-7H2,1-5H3
SMILES=CCN(CC)c1nc(C)cc(OP(=S)(OC)OC)n1
INSTRUMENT_TYPE=LC-ESI-QFT
INSTRUMENT=Q Exactive Plus Orbitrap Thermo Scientific
COLLISION_ENERGY=35  (nominal)
FORMULA=C11H20N3O3PS
PARENT=306.1036
SPLASH=splash10-0a4i-1819000000-888949daea8237727973
NUM_PEAKS=45
COMPOUND_NAME=Pirimiphos-methyl
SPECTRUM_ID=MSBNK-CASMI_2016-SM841002
ADDUCT=[M+H]+
MS_LEVEL=MS2
PRECURSOR_MZ=306.1036
IONMODE=positive
NOMINAL_MASS=305
PARENT_MASS=305.09630
62.0186 1.0 
67.0291 75.0 
68.0496 2.0 
70.0652 3.0 
78.9943 7.0 
84.0442 2.0 
88.0215 2.0 
95.0604 100.0 
99.0917 2.0 
100.0215 6.0 
108.0556 289.0 
109.076 29.0 
116.0528 2.0 
119.0604 3.0 
121.0633 1.0 
123.0916 15.0 
124.982 21.0 
127.0154 9.0 
136.0869 83.0 
140.0817 1.0 
142.9926 46.0 
150.0315 1.0 
151.0267 10.0 
157.0081 5.0 
164.1182 347.0 
168.0592 1.0 
168.1132 7.0 
179.058 13.0 
184.0902 1.0 
196.1444 12.0 
197.0988 2.0 
207.0893 23.0 
208.0193 1.0 
218.0152 2.0 
223.0662 1.0 
233.0145 9.0 
236.0255 3.0 
246.0461 14.0 
247.1201 1.0 
250.0411 7.0 
264.0559 2.0 
274.0773 23.0 
278.0723 53.0 
304.088 1.0 
306.1035 999.0 
END IONS

BEGIN IONS
SYNON=Diethoxy-sulfanylidene-(3,5,6-trichloropyridin-2-yl)oxy-$l^{5}-phosphane
INCHIKEY=SBPBAQFWLVIOKP-UHFFFAOYSA-N
INCHI=InChI=1S/C9H11Cl3NO3PS/c1-3-14-17(18,15-4-2)16-9-7(11)5-6(10)8(12)13-9/h5H,3-4H2,1-2H3
SMILES=CCOP(=S)(OCC)OC1=NC(Cl)=C(Cl)C=C1Cl
INSTRUMENT_TYPE=LC-ESI-QFT
INSTRUMENT=Q Exactive Plus Orbitrap Thermo Scientific
COLLISION_ENERGY=35  (nominal)
FORMULA=C9H11Cl3NO3PS
PARENT=349.9336
SPLASH=splash10-01ot-0912000000-574ee0c0da4a9208c364
NUM_PEAKS=33
COMPOUND_NAME=Chlorpyrifos
SPECTRUM_ID=MSBNK-CASMI_2016-SM817703
ADDUCT=[M+H]+
MS_LEVEL=MS2
PRECURSOR_MZ=349.9336
IONMODE=positive
NOMINAL_MASS=349
PARENT_MASS=348.92628
64.9788 5.0 
78.9402 1.0 
96.9507 108.0 
106.945 3.0 
110.9665 15.0 
112.9997 8.0 
114.9613 999.0 
124.982 21.0 
128.9769 61.0 
132.9718 1.0 
133.9558 22.0 
142.9926 19.0 
146.9874 1.0 
150.9171 1.0 
153.0133 7.0 
157.0084 6.0 
171.0239 138.0 
177.9279 2.0 
179.9612 37.0 
186.038 1.0 
195.9383 1.0 
197.9274 949.0 
212.8973 3.0 
213.9046 99.0 
224.0495 1.0 
225.9584 7.0 
275.8605 27.0 
277.8946 1.0 
293.8709 118.0 
303.8921 3.0 
307.8871 7.0 
321.9023 257.0 
349.9337 363.0 
END IONS

BEGIN IONS
SYNON=2-dimethoxyphosphinothioylsulfanyl-N-methylacetamide
INCHIKEY=MCWXGJITAZMZEV-UHFFFAOYSA-N
INCHI=InChI=1S/C5H12NO3PS2/c1-6-5(7)4-12-10(11,8-2)9-3/h4H2,1-3H3,(H,6,7)
SMILES=CNC(=O)CSP(=S)(OC)OC
INSTRUMENT_TYPE=LC-ESI-QFT
INSTRUMENT=Q Exactive Plus Orbitrap Thermo Scientific
COLLISION_ENERGY=35  (nominal)
FORMULA=C5H12NO3PS2
PARENT=230.0069
SPLASH=splash10-006y-1900000000-040c38c1fc22b2f6b3fe
NUM_PEAKS=31
COMPOUND_NAME=Dimethoate
SPECTRUM_ID=MSBNK-CASMI_2016-SM837901
ADDUCT=[M+H]+
MS_LEVEL=MS2
PRECURSOR_MZ=230.0069
IONMODE=positive
NOMINAL_MASS=229
PARENT_MASS=228.99962
58.9952 6.0 
61.0108 21.0 
62.0186 10.0 
76.0217 2.0 
78.9944 79.0 
86.0059 1.0 
88.0215 474.0 
93.01 27.0 
104.0164 7.0 
110.9661 6.0 
119.9936 20.0 
123.9981 18.0 
124.9821 401.0 
126.0105 2.0 
127.0155 6.0 
128.0075 14.0 
128.977 15.0 
140.9591 3.0 
142.9926 999.0 
143.9994 2.0 
144.9968 1.0 
155.9701 14.0 
156.9542 102.0 
157.0083 24.0 
158.9699 15.0 
170.9698 574.0 
188.9803 7.0 
197.9807 52.0 
198.9647 867.0 
202.9961 1.0 
230.007 40.0 
END IONS

BEGIN IONS
SYNON=naphthalen-1-yl N-methylcarbamate
INCHIKEY=CVXBEEMKQHEXEN-UHFFFAOYSA-N
INCHI=InChI=1S/C12H11NO2/c1-13-12(14)15-11-8-4-6-9-5-2-3-7-10(9)11/h2-8H,1H3,(H,13,14)
SMILES=CNC(=O)Oc1cccc2ccccc12
INSTRUMENT_TYPE=LC-ESI-QFT
INSTRUMENT=Q Exactive Plus Orbitrap Thermo Scientific
COLLISION_ENERGY=35  (nominal)
FORMULA=C12H11NO2
PARENT=202.0863
SPLASH=splash10-0002-0900000000-3047805a5b2313453e01
NUM_PEAKS=10
COMPOUND_NAME=Carbaryl
SPECTRUM_ID=MSBNK-CASMI_2016-SM848601
ADDUCT=[M+H]+
MS_LEVEL=MS2
PRECURSOR_MZ=202.0863
IONMODE=positive
NOMINAL_MASS=201
PARENT_MASS=201.07898
58.0289 4.0 
91.0541 1.0 
103.0542 7.0 
115.0541 5.0 
117.0699 88.0 
127.0541 9.0 
144.0569 1.0 
145.0647 999.0 
155.0603 48.0 
202.0855 2.0 
END IONS

BEGIN IONS
SYNON=dimethoxy-(4-nitrophenoxy)-sulfanylidene-$l^{5}-phosphane
INCHIKEY=RLBIQVVOMOPOHC-UHFFFAOYSA-N
INCHI=InChI=1S/C8H10NO5PS/c1-12-15(16,13-2)14-8-5-3-7(4-6-8)9(10)11/h3-6H,1-2H3
SMILES=COP(=S)(OC)Oc1ccc(cc1)[N+]([O-])=O
INSTRUMENT_TYPE=LC-ESI-QFT
INSTRUMENT=Q Exactive Plus Orbitrap Thermo Scientific
COLLISION_ENERGY=35  (nominal)
FORMULA=C8H10NO5PS
PARENT=264.009
SPLASH=splash10-024m-0950000000-b37490e472102dbf68f9
NUM_PEAKS=25
COMPOUND_NAME=Parathion-methyl
SPECTRUM_ID=MSBNK-CASMI_2016-SM848103
ADDUCT=[M+H]+
MS_LEVEL=MS2
PRECURSOR_MZ=264.009
IONMODE=positive
NOMINAL_MASS=263
PARENT_MASS=263.00173
78.9849 12.0 
78.9944 193.0 
92.0257 21.0 
95.0494 13.0 
108.0444 75.0 
122.0601 656.0 
123.0317 119.0 
123.0679 217.0 
123.9979 20.0 
124.9822 148.0 
127.0156 466.0 
138.0008 18.0 
139.009 26.0 
141.9849 19.0 
142.9927 829.0 
150.03 29.0 
153.9638 18.0 
154.9715 32.0 
157.0083 77.0 
185.9899 50.0 
199.9569 54.0 
217.9672 27.0 
231.9831 22.0 
249.9936 700.0 
264.0092 999.0 
END IONS

BEGIN IONS
SYNON=ethyl 2-diethoxyphosphinothioyloxy-5-methylpyrazolo[1,5-a]pyrimidine-6-carboxylate
INCHIKEY=JOOMJVFZQRQWKR-UHFFFAOYSA-N
INCHI=InChI=1S/C14H20N3O5PS/c1-5-19-14(18)11-9-17-12(15-10(11)4)8-13(16-17)22-23(24,20-6-2)21-7-3/h8-9H,5-7H2,1-4H3
SMILES=CCOC(=O)c1cn2nc(OP(=S)(OCC)OCC)cc2nc1C
INSTRUMENT_TYPE=LC-ESI-QFT
INSTRUMENT=Q Exactive Plus Orbitrap Thermo Scientific
COLLISION_ENERGY=35  (nominal)
FORMULA=C14H20N3O5PS
PARENT=374.0934
SPLASH=splash10-00di-0987000000-a6c1dca59fde3a139f0d
NUM_PEAKS=66
COMPOUND_NAME=Pyrazophos
SPECTRUM_ID=MSBNK-CASMI_2016-SM847502
ADDUCT=[M+H]+
MS_LEVEL=MS2
PRECURSOR_MZ=374.0934
IONMODE=positive
NOMINAL_MASS=373
PARENT_MASS=373.08613
64.9787 21.0 
82.9892 3.0 
93.01 19.0 
96.9507 15.0 
98.9664 2.0 
98.9842 4.0 
109.0048 2.0 
110.9664 2.0 
111.0205 1.0 
113.9535 69.0 
114.9613 91.0 
124.9822 1.0 
125.9898 5.0 
128.9769 3.0 
130.9562 4.0 
133.0632 1.0 
139.0502 4.0 
141.9848 21.0 
142.9925 13.0 
148.0504 16.0 
149.0347 2.0 
150.066 2.0 
151.0503 1.0 
159.0426 9.0 
165.0116 5.0 
166.0611 14.0 
170.0159 20.0 
176.0454 179.0 
177.0295 8.0 
177.0532 73.0 
178.0611 3.0 
180.0893 4.0 
181.0064 9.0 
183.0223 66.0 
190.0071 1.0 
192.0225 22.0 
194.056 642.0 
195.076 1.0 
199.0171 3.0 
205.0845 58.0 
206.0926 4.0 
208.0175 17.0 
208.0714 2.0 
209.0375 4.0 
210.0331 94.0 
211.0535 56.0 
222.0872 733.0 
227.0481 1.0 
236.0487 42.0 
238.0643 196.0 
239.0844 1.0 
250.1184 2.0 
253.9781 4.0 
256.0118 4.0 
266.0955 3.0 
271.9888 10.0 
274.0221 3.0 
289.9989 4.0 
300.0204 17.0 
302.0535 2.0 
304.0143 1.0 
318.0309 23.0 
328.0515 8.0 
332.0465 2.0 
346.062 80.0 
374.0934 999.0 
END IONS

BEGIN IONS
SYNON=N-[ethoxy-(3-methyl-4-methylsulfanylphenoxy)phosphoryl]propan-2-amine
INCHIKEY=ZCJPOPBZHLUFHF-UHFFFAOYSA-N
INCHI=InChI=1S/C13H22NO3PS/c1-6-16-18(15,14-10(2)3)17-12-7-8-13(19-5)11(4)9-12/h7-10H,6H2,1-5H3,(H,14,15)
SMILES=CCOP(=O)(NC(C)C)OC1=CC(=C(C=C1)SC)C
INSTRUMENT_TYPE=LC-ESI-QFT
INSTRUMENT=Exploris 240 Orbitrap Thermo Scientific
COLLISION_ENERGY=180 % (nominal)
FORMULA=C13H22NO3PS
PARENT=304.1131
SPLASH=splash10-0fvi-9100000000-f926f73fd2fff45a919a
NUM_PEAKS=22
COMPOUND_NAME=Fenamiphos
SPECTRUM_ID=MSBNK-Eawag-EQ01124709
ADDUCT=[M+H]+
MS_LEVEL=MS2
PRECURSOR_MZ=304.1131
IONMODE=positive
NOMINAL_MASS=303
PARENT_MASS=303.1058
51.0229 651.0 
53.0385 425.0 
58.9949 216.0 
63.023 121.0 
65.0385 779.0 
66.0463 826.0 
67.0544 72.0 
68.9795 179.0 
70.9953 70.0 
77.0385 999.0 
78.0463 813.0 
79.0541 272.0 
84.0029 129.0 
89.0385 78.0 
91.0543 296.0 
94.0415 91.0 
95.049 290.0 
97.0105 202.0 
97.9998 63.0 
103.0546 123.0 
107.0492 322.0 
121.0106 632.0 
END IONS

BEGIN IONS
SYNON=2,2-bis(chloranyl)ethenyl dimethyl phosphate
INCHIKEY=OEBRKCOSUFCWJD-UHFFFAOYSA-N
INCHI=InChI=1S/C4H7Cl2O4P/c1-8-11(7,9-2)10-3-4(5)6/h3H,1-2H3
SMILES=O=P(O\C=C(/Cl)Cl)(OC)OC
INSTRUMENT_TYPE=LC-ESI-QFT
INSTRUMENT=Q Exactive Orbitrap Thermo Scientific
COLLISION_ENERGY=75 (nominal)
FORMULA=C4H7Cl2O4P
PARENT=220.9532
SPLASH=splash10-004i-4900000000-dccb667225335d52f6d1
NUM_PEAKS=21
COMPOUND_NAME=Dichlorvos
SPECTRUM_ID=MSBNK-Eawag-EQ304705
ADDUCT=[M+H]+
MS_LEVEL=MS2
PRECURSOR_MZ=220.9532
IONMODE=positive
NOMINAL_MASS=220
PARENT_MASS=219.94590
59.9763 16.0 
62.9997 4.0 
64.9787 6.0 
72.984 1.0 
75.9711 1.0 
76.9788 10.0 
78.9943 403.0 
80.9735 1.0 
81.01 1.0 
82.9449 5.0 
94.9449 29.0 
94.9891 5.0 
96.9604 50.0 
97.0049 28.0 
98.9841 9.0 
109.0049 18.0 
111.9476 7.0 
112.9998 93.0 
127.0154 999.0 
130.9657 6.0 
144.9817 4.0 
END IONS

BEGIN IONS
SYNON=3-(dimethoxyphosphinothioylsulfanylmethyl)-5-methoxy-1,3,4-thiadiazol-2-one
INCHIKEY=MEBQXILRKZHVCX-UHFFFAOYSA-N
INCHI=InChI=1S/C6H11N2O4PS3/c1-10-5-7-8(6(9)16-5)4-15-13(14,11-2)12-3/h4H2,1-3H3
SMILES=O=C1SC(=N/N1CSP(=S)(OC)OC)\OC
INSTRUMENT_TYPE=LC-ESI-QFT
INSTRUMENT=Q Exactive Orbitrap Thermo Scientific
COLLISION_ENERGY=15 (nominal)
FORMULA=C6H11N2O4PS3
PARENT=302.9691
SPLASH=splash10-0002-2900000000-abce1a72497794da1539
NUM_PEAKS=5
COMPOUND_NAME=Methidathion
SPECTRUM_ID=MSBNK-Eawag-EQ309601
ADDUCT=[M+H]+
MS_LEVEL=MS2
PRECURSOR_MZ=302.9691
IONMODE=positive
NOMINAL_MASS=302
PARENT_MASS=301.96186
58.0287 19.0 
71.0239 76.0 
85.0396 162.0 
103.0502 10.0 
145.0067 999.0 
END IONS

BEGIN IONS
SYNON=(3,5-dimethyl-4-methylsulfanyl-phenyl) N-methylcarbamate
INCHIKEY=YFBPRJGDJKVWAH-UHFFFAOYSA-N
INCHI=InChI=1S/C11H15NO2S/c1-7-5-9(14-11(13)12-3)6-8(2)10(7)15-4/h5-6H,1-4H3,(H,12,13)
SMILES=O=C(Oc1cc(c(SC)c(c1)C)C)NC
INSTRUMENT_TYPE=LC-ESI-ITFT
INSTRUMENT=LTQ Orbitrap XL Thermo Scientific
COLLISION_ENERGY=75 % (nominal)
FORMULA=C11H15NO2S
PARENT=226.0896
SPLASH=splash10-00di-3900000000-a62da53c848e9bb067fc
NUM_PEAKS=30
COMPOUND_NAME=Methiocarb
SPECTRUM_ID=MSBNK-Eawag-EA293706
ADDUCT=[M+H]+
MS_LEVEL=MS2
PRECURSOR_MZ=226.0896
IONMODE=positive
NOMINAL_MASS=225
PARENT_MASS=225.0823
53.0386 15.0 
55.0179 1.0 
58.0288 1.0 
65.0385 3.0 
67.0543 9.0 
77.0387 189.0 
78.0465 6.0 
79.0542 11.0 
81.0336 3.0 
91.0543 312.0 
93.07 365.0 
94.0777 9.0 
95.0492 14.0 
95.0851 2.0 
103.0543 14.0 
104.0619 4.0 
105.0448 77.0 
105.0698 4.0 
107.0492 234.0 
108.0566 1.0 
109.065 8.0 
111.0262 3.0 
121.0649 999.0 
122.0727 778.0 
123.0804 14.0 
125.0422 3.0 
126.05 2.0 
139.0215 1.0 
153.0368 11.0 
154.0448 59.0 
END IONS

BEGIN IONS
SYNON=diethoxy-(4-nitrophenoxy)-sulfanylidene-$l^{5}-phosphane
INCHIKEY=LCCNCVORNKJIRZ-UHFFFAOYSA-N
INCHI=InChI=1S/C10H14NO5PS/c1-3-14-17(18,15-4-2)16-10-7-5-9(6-8-10)11(12)13/h5-8H,3-4H2,1-2H3
SMILES=S=P(Oc1ccc(cc1)[N+]([O-])=O)(OCC)OCC
INSTRUMENT_TYPE=LC-ESI-QFT
INSTRUMENT=Q Exactive Orbitrap Thermo Scientific
COLLISION_ENERGY=75 (nominal)
FORMULA=C10H14NO5PS
PARENT=292.0403
SPLASH=splash10-01vo-4900000000-c58ec980fa6b4210133c
NUM_PEAKS=76
COMPOUND_NAME=Parathion
SPECTRUM_ID=MSBNK-Eawag-EQ311505
ADDUCT=[M+H]+
MS_LEVEL=MS2
PRECURSOR_MZ=292.0403
IONMODE=positive
NOMINAL_MASS=291
PARENT_MASS=291.03303
62.9453 3.0 
63.0228 2.0 
64.0307 4.0 
64.9787 31.0 
65.0385 37.0 
66.0464 40.0 
68.0256 1.0 
68.9793 1.0 
75.0229 34.0 
78.0339 4.0 
78.0464 1.0 
78.9401 1.0 
79.0178 3.0 
80.0494 1.0 
80.9734 1.0 
81.0334 7.0 
82.0413 4.0 
84.0028 6.0 
91.0542 2.0 
92.0255 31.0 
93.0334 4.0 
94.0412 999.0 
95.0489 3.0 
96.0027 8.0 
96.9506 5.0 
97.0105 17.0 
98.0183 4.0 
98.9841 29.0 
100.0073 1.0 
105.0697 3.0 
107.0491 3.0 
108.0028 7.0 
109.0106 33.0 
109.0282 14.0 
110.0184 484.0 
110.0361 27.0 
111.0439 39.0 
114.9612 597.0 
120.0569 1.0 
121.0395 48.0 
123.0313 589.0 
123.9976 11.0 
125.0054 79.0 
126.0132 24.0 
127.021 6.0 
128.0021 5.0 
132.9717 6.0 
137.0166 4.0 
138.0009 5.0 
138.9943 16.0 
139.0085 59.0 
140.034 131.0 
150.0297 39.0 
153.9956 14.0 
154.9714 36.0 
155.997 24.0 
156.0112 35.0 
170.9662 7.0 
171.9741 171.0 
174.0075 143.0 
184.9872 5.0 
187.969 4.0 
188.9767 15.0 
189.9847 74.0 
198.9728 3.0 
200.9646 6.0 
201.006 1.0 
202.9976 21.0 
204.9721 4.0 
205.9795 11.0 
216.9831 1.0 
217.9675 1.0 
218.9749 20.0 
220.0001 11.0 
221.9747 1.0 
235.9775 36.0 
END IONS

BEGIN IONS
SYNON=(2,2-dimethyl-3H-1-benzofuran-7-yl) N-(dibutylamino)sulfanyl-N-methylcarbamate
INCHIKEY=JLQUFIHWVLZVTJ-UHFFFAOYSA-N
INCHI=InChI=1S/C20H32N2O3S/c1-6-8-13-22(14-9-7-2)26-21(5)19(23)24-17-12-10-11-16-15-20(3,4)25-18(16)17/h10-12H,6-9,13-15H2,1-5H3
SMILES=CCCCN(CCCC)SN(C)C(=O)OC1=CC=CC2=C1OC(C2)(C)C
INSTRUMENT_TYPE=LC-ESI-QFT
INSTRUMENT=Exploris 240 Orbitrap Thermo Scientific
COLLISION_ENERGY=75 % (nominal)
FORMULA=C20H32N2O3S
PARENT=381.2206
SPLASH=splash10-004i-9200000000-f49478db2c07540acb61
NUM_PEAKS=11
COMPOUND_NAME=Carbosulfan
SPECTRUM_ID=MSBNK-Eawag-EQ01121405
ADDUCT=[M+H]+
MS_LEVEL=MS2
PRECURSOR_MZ=381.2206
IONMODE=positive
NOMINAL_MASS=380
PARENT_MASS=380.2134
55.0541 21.0 
57.0698 337.0 
62.0058 262.0 
72.0808 85.0 
76.0215 999.0 
86.0964 46.0 
104.0528 41.0 
118.0683 177.0 
123.0438 152.0 
125.005 19.0 
128.1435 68.0 
END IONS

BEGIN IONS
SYNON=dimethoxy-sulfanylidene-(3,5,6-trichloropyridin-2-yl)oxy-{5}-phosphane
INCHIKEY=HRBKVYFZANMGRE-UHFFFAOYSA-N
INCHI=InChI=1S/C7H7Cl3NO3PS/c1-12-15(16,13-2)14-7-5(9)3-4(8)6(10)11-7/h3H,1-2H3
SMILES=Clc1c(OP(=S)(OC)OC)nc(Cl)c(Cl)c1
INSTRUMENT_TYPE=LC-ESI-ITFT
INSTRUMENT=LTQ Orbitrap XL Thermo Scientific
COLLISION_ENERGY=30 % (nominal)
FORMULA=C7H7Cl3NO3PS
PARENT=321.9023
SPLASH=splash10-00dl-0921000000-922781625b4d1f7328cb
NUM_PEAKS=11
COMPOUND_NAME=Chlorpyrifos-methyl
SPECTRUM_ID=MSBNK-Eawag-EA295103
ADDUCT=[M+H]+
MS_LEVEL=MS2
PRECURSOR_MZ=321.9023
IONMODE=positive
NOMINAL_MASS=321
PARENT_MASS=320.8950
62.0184 3.0 
78.9943 27.0 
109.0048 16.0 
110.9666 15.0 
124.982 999.0 
127.0155 163.0 
128.977 3.0 
142.9926 809.0 
211.9435 6.0 
289.8762 577.0 
321.9027 240.0 
END IONS

BEGIN IONS
SYNON=diethoxyphosphinothioylsulfanylmethylsulfanyl-diethoxy-sulfanylidene-lambda5-phosphane
INCHIKEY=RIZMRRKBZQXFOY-UHFFFAOYSA-N
INCHI=InChI=1S/C9H22O4P2S4/c1-5-10-14(16,11-6-2)18-9-19-15(17,12-7-3)13-8-4/h5-9H2,1-4H3
SMILES=CCOP(=S)(OCC)SCSP(=S)(OCC)OCC
INSTRUMENT_TYPE=LC-ESI-QFT
INSTRUMENT=Exploris 240 Orbitrap Thermo Scientific
COLLISION_ENERGY=60 % (nominal)
FORMULA=C9H22O4P2S4
PARENT=384.9949
SPLASH=splash10-0005-5900000000-32c37480166bcb57dec6
NUM_PEAKS=12
COMPOUND_NAME=Ethion
SPECTRUM_ID=MSBNK-Eawag-EQ01136004
ADDUCT=[M+H]+
MS_LEVEL=MS2
PRECURSOR_MZ=384.9949
IONMODE=positive
NOMINAL_MASS=384
PARENT_MASS=383.9876
75.0264 10.0 
96.9508 999.0 
110.9666 33.0 
114.9614 354.0 
124.982 90.0 
126.9437 29.0 
128.9231 33.0 
128.977 20.0 
142.9385 929.0 
156.9542 6.0 
170.97 10.0 
174.9106 15.0 
END IONS

BEGIN IONS
SYNON=ethyl 3-[[(2,2-dimethyl-3H-1-benzofuran-7-yl)oxycarbonyl-methylamino]sulfanyl-propan-2-ylamino]propanoate
INCHIKEY=FYZBOYWSHKHDMT-UHFFFAOYSA-N
INCHI=InChI=1S/C20H30N2O5S/c1-7-25-17(23)11-12-22(14(2)3)28-21(6)19(24)26-16-10-8-9-15-13-20(4,5)27-18(15)16/h8-10,14H,7,11-13H2,1-6H3
SMILES=CCOC(=O)CCN(C(C)C)SN(C)C(=O)OC1=CC=CC2=C1OC(C2)(C)C
INSTRUMENT_TYPE=LC-ESI-QFT
INSTRUMENT=Exploris 240 Orbitrap Thermo Scientific
COLLISION_ENERGY=150 % (nominal)
FORMULA=C20H30N2O5S
PARENT=411.1948
SPLASH=splash10-0159-9300000000-94c4cd2e8877fa3b066d
NUM_PEAKS=31
COMPOUND_NAME=Benfuracarb
SPECTRUM_ID=MSBNK-Eawag-EQ01120508
ADDUCT=[M+H]+
MS_LEVEL=MS2
PRECURSOR_MZ=411.1948
IONMODE=positive
NOMINAL_MASS=410
PARENT_MASS=410.1875
51.0231 91.0 
53.0386 590.0 
55.0179 132.0 
56.0494 48.0 
56.9794 178.0 
58.0288 214.0 
58.995 97.0 
59.9902 59.0 
65.0386 224.0 
67.0178 70.0 
67.054 35.0 
68.9794 78.0 
70.0652 60.0 
74.006 106.0 
77.0386 143.0 
79.0542 137.0 
81.0335 464.0 
84.9743 440.0 
89.0387 75.0 
91.0542 296.0 
95.0494 86.0 
97.0107 245.0 
103.0545 46.0 
105.0448 86.0 
105.0699 67.0 
109.0285 160.0 
115.0543 999.0 
116.0621 127.0 
119.0497 30.0 
134.0185 48.0 
147.0443 46.0 
END IONS

BEGIN IONS
SYNON=N,N-dimethylcarbamic acid [2-(dimethylamino)-5,6-dimethyl-4-pyrimidinyl] ester
INCHIKEY=YFGYUFNIOHWBOB-UHFFFAOYSA-N
INCHI=InChI=1S/C11H18N4O2/c1-7-8(2)12-10(14(3)4)13-9(7)17-11(16)15(5)6/h1-6H3
SMILES=n(c(c(C)c1OC(=O)N(C)C)C)c(n1)N(C)C
INSTRUMENT_TYPE=LC-ESI-ITFT
INSTRUMENT=LTQ Orbitrap XL Thermo Scientific
COLLISION_ENERGY=45 % (nominal)
FORMULA=C11H18N4O2
PARENT=239.1503
SPLASH=splash10-00e9-8900000000-9f7b0f161cf950513225
NUM_PEAKS=12
COMPOUND_NAME=Pirimicarb
SPECTRUM_ID=MSBNK-Eawag-EA271104
ADDUCT=[M+H]+
MS_LEVEL=MS2
PRECURSOR_MZ=239.1503
IONMODE=positive
NOMINAL_MASS=238
PARENT_MASS=238.1430
72.0445 999.0 
83.0238 2.0 
85.076 19.0 
109.076 7.0 
137.0711 26.0 
138.0784 2.0 
150.1029 13.0 
166.0972 2.0 
167.1052 8.0 
182.1289 938.0 
195.1604 41.0 
239.1511 102.0 
END IONS

BEGIN IONS
SYNON=diethoxy-(2-isopropyl-6-methyl-pyrimidin-4-yl)oxy-thioxo-phosphorane
INCHIKEY=FHIVAFMUCKRCQO-UHFFFAOYSA-N
INCHI=InChI=1S/C12H21N2O3PS/c1-6-15-18(19,16-7-2)17-11-8-10(5)13-12(14-11)9(3)4/h8-9H,6-7H2,1-5H3
SMILES=O(c1nc(nc(c1)C)C(C)C)P(OCC)(OCC)=S
INSTRUMENT_TYPE=LC-ESI-ITFT
INSTRUMENT=LTQ Orbitrap XL Thermo Scientific
COLLISION_ENERGY=35 % (nominal)
FORMULA=C12H21N2O3PS
PARENT=305.1083
SPLASH=splash10-0gb9-0900000000-373a091bd4e337f273ac
NUM_PEAKS=6
COMPOUND_NAME=Diazinon
SPECTRUM_ID=MSBNK-Eawag-EA029301
ADDUCT=[M+H]+
MS_LEVEL=MS2
PRECURSOR_MZ=305.1083
IONMODE=positive
NOMINAL_MASS=304
PARENT_MASS=304.1011
153.1026 553.0 
169.0797 999.0 
181.1338 5.0 
197.1111 3.0 
249.0454 6.0 
277.0773 50.0 
END IONS

BEGIN IONS
SYNON=(1E)-N-(methylcarbamoyloxy)ethanimidothioic acid methyl ester
INCHIKEY=UHXUZOCRWCRNSJ-QPJJXVBHSA-N
INCHI=InChI=1S/C5H10N2O2S/c1-4(10-3)7-9-5(8)6-2/h1-3H3,(H,6,8)/b7-4+
SMILES=C/C(=N\OC(=O)NC)SC
INSTRUMENT_TYPE=LC-ESI-ITFT
INSTRUMENT=LTQ Orbitrap XL Thermo Scientific
COLLISION_ENERGY=60 % (nominal)
FORMULA=C5H10N2O2S
PARENT=163.0536
SPLASH=splash10-052r-9400000000-58a29283a18ff87fed94
NUM_PEAKS=10
COMPOUND_NAME=Methomyl
SPECTRUM_ID=MSBNK-Eawag-EA294211
ADDUCT=[M+H]+
MS_LEVEL=MS2
PRECURSOR_MZ=163.0536
IONMODE=positive
NOMINAL_MASS=162
PARENT_MASS=162.0463
56.0495 41.0 
57.0699 8.0 
58.0287 110.0 
61.0106 28.0 
65.0055 19.0 
71.9903 6.0 
72.9981 147.0 
88.0215 999.0 
89.0596 3.0 
106.0322 624.0 
END IONS

BEGIN IONS
SYNON=methyl N-[methyl-[methyl-(1-methylsulfanylethylideneamino)oxycarbonylamino]sulfanylcarbamoyl]oxyethanimidothioate
INCHIKEY=XDOTVMNBCQVZKG-UHFFFAOYSA-N
INCHI=InChI=1S/C10H18N4O4S3/c1-7(19-5)11-17-9(15)13(3)21-14(4)10(16)18-12-8(2)20-6/h1-6H3
SMILES=CC(=NOC(=O)N(C)SN(C)C(=O)ON=C(C)SC)SC
INSTRUMENT_TYPE=LC-ESI-QFT
INSTRUMENT=Exploris 240 Orbitrap Thermo Scientific
COLLISION_ENERGY=180 % (nominal)
FORMULA=C10H18N4O4S3
PARENT=355.0563
SPLASH=splash10-00di-9000000000-09cdd4708307eadfe687
NUM_PEAKS=9
COMPOUND_NAME=Thiodicarb
SPECTRUM_ID=MSBNK-Eawag-EQ01131409
ADDUCT=[M+H]+
MS_LEVEL=MS2
PRECURSOR_MZ=355.0563
IONMODE=positive
NOMINAL_MASS=354
PARENT_MASS=354.0490
56.0495 106.0 
58.9951 49.0 
59.9901 221.0 
60.998 284.0 
62.0058 94.0 
63.9435 235.0 
71.9903 733.0 
72.9981 999.0 
88.0218 37.0 
END IONS

BEGIN IONS
SYNON=ethyl 3-[[(2,2-dimethyl-3H-1-benzofuran-7-yl)oxycarbonyl-methylamino]sulfanyl-propan-2-ylamino]propanoate
INCHIKEY=FYZBOYWSHKHDMT-UHFFFAOYSA-N
INCHI=InChI=1S/C20H30N2O5S/c1-7-25-17(23)11-12-22(14(2)3)28-21(6)19(24)26-16-10-8-9-15-13-20(4,5)27-18(15)16/h8-10,14H,7,11-13H2,1-6H3
SMILES=CCOC(=O)CCN(C(C)C)SN(C)C(=O)OC1=CC=CC2=C1OC(C2)(C)C
INSTRUMENT_TYPE=LC-ESI-QFT
INSTRUMENT=Exploris 240 Orbitrap Thermo Scientific
COLLISION_ENERGY=45 % (nominal)
FORMULA=C20H30N2O5S
PARENT=411.1948
SPLASH=splash10-0002-1900000000-e446ea39c55322a2e886
NUM_PEAKS=26
COMPOUND_NAME=Benfuracarb
SPECTRUM_ID=MSBNK-Eawag-EQ01120503
ADDUCT=[M+H]+
MS_LEVEL=MS2
PRECURSOR_MZ=411.1948
IONMODE=positive
NOMINAL_MASS=410
PARENT_MASS=410.1875
58.0288 4.0 
58.0651 3.0 
70.0651 14.0 
73.0284 41.0 
74.0059 32.0 
74.0601 6.0 
90.0372 85.0 
101.0595 24.0 
102.0008 132.0 
111.0805 4.0 
112.0755 23.0 
116.0523 5.0 
116.0705 12.0 
120.0113 8.0 
130.0865 5.0 
143.0489 3.0 
144.0475 42.0 
148.0428 38.0 
153.0368 22.0 
158.1176 70.0 
161.0598 15.0 
162.0677 93.0 
167.0526 18.0 
177.0375 15.0 
190.0892 10.0 
195.0475 999.0 
END IONS

BEGIN IONS
SYNON=2-[butan-2-ylsulfanyl(ethoxy)phosphoryl]sulfanylbutane
INCHIKEY=KXRPCFINVWWFHQ-UHFFFAOYSA-N
INCHI=InChI=1S/C10H23O2PS2/c1-6-9(4)14-13(11,12-8-3)15-10(5)7-2/h9-10H,6-8H2,1-5H3
SMILES=CCC(C)SP(=O)(OCC)SC(C)CC
INSTRUMENT_TYPE=LC-ESI-QFT
INSTRUMENT=Exploris 240 Orbitrap Thermo Scientific
COLLISION_ENERGY=150 % (nominal)
FORMULA=C10H23O2PS2
PARENT=271.095
SPLASH=splash10-01r2-9000000000-ae735228c71e116fc6d7
NUM_PEAKS=6
COMPOUND_NAME=Cadusafos
SPECTRUM_ID=MSBNK-Eawag-EQ01121208
ADDUCT=[M+H]+
MS_LEVEL=MS2
PRECURSOR_MZ=271.095
IONMODE=positive
NOMINAL_MASS=270
PARENT_MASS=270.0877
64.9787 878.0 
78.9402 625.0 
94.9174 393.0 
96.9508 999.0 
110.9667 47.0 
112.9281 35.0 
END IONS

BEGIN IONS
SYNON=ethyl 2-dimethoxyphosphinothioylsulfanyl-2-phenylacetate
INCHIKEY=XAMUDJHXFNRLCY-UHFFFAOYSA-N
INCHI=InChI=1S/C12H17O4PS2/c1-4-16-12(13)11(10-8-6-5-7-9-10)19-17(18,14-2)15-3/h5-9,11H,4H2,1-3H3
SMILES=CCOC(=O)C(C1=CC=CC=C1)SP(=S)(OC)OC
INSTRUMENT_TYPE=LC-ESI-QFT
INSTRUMENT=Exploris 240 Orbitrap Thermo Scientific
COLLISION_ENERGY=45 % (nominal)
FORMULA=C12H17O4PS2
PARENT=321.0379
SPLASH=splash10-059l-2900000000-58e7d85c55ff601136bf
NUM_PEAKS=11
COMPOUND_NAME=Phenthoate
SPECTRUM_ID=MSBNK-Eawag-EQ01129203
ADDUCT=[M+H]+
MS_LEVEL=MS2
PRECURSOR_MZ=321.0379
IONMODE=positive
NOMINAL_MASS=320
PARENT_MASS=320.0306
79.0542 257.0 
91.0542 608.0 
107.0491 958.0 
110.9668 15.0 
124.982 818.0 
135.044 999.0 
135.0801 266.0 
142.9925 157.0 
151.0211 49.0 
163.0752 92.0 
247.0008 14.0 
END IONS

BEGIN IONS
SYNON=dimethoxy-sulfanylidene-(3,5,6-trichloropyridin-2-yl)oxy-{5}-phosphane
INCHIKEY=HRBKVYFZANMGRE-UHFFFAOYSA-N
INCHI=InChI=1S/C7H7Cl3NO3PS/c1-12-15(16,13-2)14-7-5(9)3-4(8)6(10)11-7/h3H,1-2H3
SMILES=Clc1c(OP(=S)(OC)OC)nc(Cl)c(Cl)c1
INSTRUMENT_TYPE=LC-ESI-ITFT
INSTRUMENT=LTQ Orbitrap XL Thermo Scientific
COLLISION_ENERGY=75 % (nominal)
FORMULA=C7H7Cl3NO3PS
PARENT=321.9023
SPLASH=splash10-00bc-3900000000-d193f5b9229a47cf7cb6
NUM_PEAKS=17
COMPOUND_NAME=Chlorpyrifos-methyl
SPECTRUM_ID=MSBNK-Eawag-EA295106
ADDUCT=[M+H]+
MS_LEVEL=MS2
PRECURSOR_MZ=321.9023
IONMODE=positive
NOMINAL_MASS=321
PARENT_MASS=320.8950
62.0184 58.0 
78.9943 863.0 
93.0099 47.0 
97.0051 14.0 
106.9449 27.0 
109.0053 23.0 
124.982 904.0 
127.0155 296.0 
142.9926 999.0 
150.9167 32.0 
161.9504 16.0 
167.9167 41.0 
176.92 129.0 
179.9169 49.0 
197.9273 40.0 
211.8888 155.0 
229.9004 39.0 
END IONS

BEGIN IONS
SYNON=diethoxy-(2-isopropyl-6-methyl-pyrimidin-4-yl)oxy-thioxo-phosphorane
INCHIKEY=FHIVAFMUCKRCQO-UHFFFAOYSA-N
INCHI=InChI=1S/C12H21N2O3PS/c1-6-15-18(19,16-7-2)17-11-8-10(5)13-12(14-11)9(3)4/h8-9H,6-7H2,1-5H3
SMILES=O(c1nc(nc(c1)C)C(C)C)P(OCC)(OCC)=S
INSTRUMENT_TYPE=LC-ESI-ITFT
INSTRUMENT=LTQ Orbitrap XL Thermo Scientific
COLLISION_ENERGY=45 % (nominal)
FORMULA=C12H21N2O3PS
PARENT=305.1083
SPLASH=splash10-0gb9-0900000000-cf4033176e3d7c36c589
NUM_PEAKS=14
COMPOUND_NAME=Diazinon
SPECTRUM_ID=MSBNK-Eawag-EA029310
ADDUCT=[M+H]+
MS_LEVEL=MS2
PRECURSOR_MZ=305.1083
IONMODE=positive
NOMINAL_MASS=304
PARENT_MASS=304.1011
84.0443 5.0 
96.9508 141.0 
98.9842 4.0 
100.0216 8.0 
109.0049 15.0 
114.9614 114.0 
124.9821 14.0 
153.1023 569.0 
169.0795 999.0 
181.1335 28.0 
197.1105 4.0 
231.0352 4.0 
249.0456 2.0 
305.1085 33.0 
END IONS

BEGIN IONS
SYNON=2-(dimethoxyphosphinothioylthio)-N-methylacetamide
INCHIKEY=MCWXGJITAZMZEV-UHFFFAOYSA-N
INCHI=InChI=1S/C5H12NO3PS2/c1-6-5(7)4-12-10(11,8-2)9-3/h4H2,1-3H3,(H,6,7)
SMILES=P(SCC(NC)=O)(OC)(OC)=S
INSTRUMENT_TYPE=LC-ESI-ITFT
INSTRUMENT=LTQ Orbitrap XL Thermo Scientific
COLLISION_ENERGY=90 % (nominal)
FORMULA=C5H12NO3PS2
PARENT=230.0069
SPLASH=splash10-006x-4900000000-fcdb9f8918e1f2835102
NUM_PEAKS=27
COMPOUND_NAME=Dimethoate
SPECTRUM_ID=MSBNK-Eawag-EA276107
ADDUCT=[M+H]+
MS_LEVEL=MS2
PRECURSOR_MZ=230.0069
IONMODE=positive
NOMINAL_MASS=229
PARENT_MASS=228.9996
58.9949 10.0 
59.9997 6.0 
61.0106 13.0 
62.0185 42.0 
62.9453 3.0 
62.9994 26.0 
76.0215 14.0 
78.0104 11.0 
78.9943 598.0 
88.0216 53.0 
92.0261 17.0 
93.01 280.0 
94.9714 10.0 
97.0051 12.0 
104.0163 8.0 
109.005 5.0 
110.9665 53.0 
111.0206 12.0 
119.9937 4.0 
123.9981 69.0 
124.982 999.0 
127.0156 32.0 
128.977 76.0 
142.9926 926.0 
155.9697 5.0 
156.954 49.0 
170.9696 4.0 
END IONS

BEGIN IONS
SYNON=(1E)-N-(methylcarbamoyloxy)ethanimidothioic acid methyl ester
INCHIKEY=UHXUZOCRWCRNSJ-QPJJXVBHSA-N
INCHI=InChI=1S/C5H10N2O2S/c1-4(10-3)7-9-5(8)6-2/h1-3H3,(H,6,8)/b7-4+
SMILES=C/C(=N\OC(=O)NC)SC
INSTRUMENT_TYPE=LC-ESI-ITFT
INSTRUMENT=LTQ Orbitrap XL Thermo Scientific
COLLISION_ENERGY=75 % (nominal)
FORMULA=C5H10N2O2S
PARENT=163.0536
SPLASH=splash10-052r-9200000000-db11172c09d336f4352b
NUM_PEAKS=9
COMPOUND_NAME=Methomyl
SPECTRUM_ID=MSBNK-Eawag-EA294212
ADDUCT=[M+H]+
MS_LEVEL=MS2
PRECURSOR_MZ=163.0536
IONMODE=positive
NOMINAL_MASS=162
PARENT_MASS=162.0463
56.0494 59.0 
57.0698 13.0 
58.0287 193.0 
61.0106 45.0 
65.0054 18.0 
71.9903 23.0 
72.9981 429.0 
88.0215 999.0 
106.0321 437.0 
END IONS

BEGIN IONS
SYNON=N,N-dimethylcarbamic acid [2-(dimethylamino)-5,6-dimethyl-4-pyrimidinyl] ester
INCHIKEY=YFGYUFNIOHWBOB-UHFFFAOYSA-N
INCHI=InChI=1S/C11H18N4O2/c1-7-8(2)12-10(14(3)4)13-9(7)17-11(16)15(5)6/h1-6H3
SMILES=n(c(c(C)c1OC(=O)N(C)C)C)c(n1)N(C)C
INSTRUMENT_TYPE=LC-ESI-ITFT
INSTRUMENT=LTQ Orbitrap XL Thermo Scientific
COLLISION_ENERGY=15 % (nominal)
FORMULA=C11H18N4O2
PARENT=239.1503
SPLASH=splash10-000i-0090000000-edb0bc24868f40d0845e
NUM_PEAKS=4
COMPOUND_NAME=Pirimicarb
SPECTRUM_ID=MSBNK-Eawag-EA271102
ADDUCT=[M+H]+
MS_LEVEL=MS2
PRECURSOR_MZ=239.1503
IONMODE=positive
NOMINAL_MASS=238
PARENT_MASS=238.1430
72.0441 29.0 
182.129 36.0 
195.16 7.0 
239.1505 999.0 
END IONS

BEGIN IONS
SYNON=2-(dimethoxyphosphinothioylthio)-N-methylacetamide
INCHIKEY=MCWXGJITAZMZEV-UHFFFAOYSA-N
INCHI=InChI=1S/C5H12NO3PS2/c1-6-5(7)4-12-10(11,8-2)9-3/h4H2,1-3H3,(H,6,7)
SMILES=P(SCC(NC)=O)(OC)(OC)=S
INSTRUMENT_TYPE=LC-ESI-ITFT
INSTRUMENT=LTQ Orbitrap XL Thermo Scientific
COLLISION_ENERGY=45 % (nominal)
FORMULA=C5H12NO3PS2
PARENT=230.0069
SPLASH=splash10-00dl-0900000000-33e3ae8293b20dbea209
NUM_PEAKS=27
COMPOUND_NAME=Dimethoate
SPECTRUM_ID=MSBNK-Eawag-EA276110
ADDUCT=[M+H]+
MS_LEVEL=MS2
PRECURSOR_MZ=230.0069
IONMODE=positive
NOMINAL_MASS=229
PARENT_MASS=228.9996
58.9951 1.0 
61.0106 12.0 
62.0184 3.0 
76.0216 2.0 
78.9943 35.0 
86.0059 2.0 
88.0215 184.0 
92.0263 1.0 
93.01 11.0 
94.9711 1.0 
104.0165 6.0 
109.0049 4.0 
110.9664 17.0 
119.9937 18.0 
123.9981 23.0 
124.9821 999.0 
127.0155 11.0 
128.977 11.0 
140.9592 4.0 
142.9926 767.0 
155.9702 17.0 
156.9541 140.0 
158.9697 2.0 
169.9851 1.0 
170.9698 477.0 
197.9805 17.0 
198.9645 69.0 
END IONS

BEGIN IONS
SYNON=ethyl 2-dimethoxyphosphinothioylsulfanyl-2-phenylacetate
INCHIKEY=XAMUDJHXFNRLCY-UHFFFAOYSA-N
INCHI=InChI=1S/C12H17O4PS2/c1-4-16-12(13)11(10-8-6-5-7-9-10)19-17(18,14-2)15-3/h5-9,11H,4H2,1-3H3
SMILES=CCOC(=O)C(C1=CC=CC=C1)SP(=S)(OC)OC
INSTRUMENT_TYPE=LC-ESI-QFT
INSTRUMENT=Exploris 240 Orbitrap Thermo Scientific
COLLISION_ENERGY=60 % (nominal)
FORMULA=C12H17O4PS2
PARENT=321.0379
SPLASH=splash10-0a6u-5900000000-b65311bdf239dd4800d6
NUM_PEAKS=13
COMPOUND_NAME=Phenthoate
SPECTRUM_ID=MSBNK-Eawag-EQ01129204
ADDUCT=[M+H]+
MS_LEVEL=MS2
PRECURSOR_MZ=321.0379
IONMODE=positive
NOMINAL_MASS=320
PARENT_MASS=320.0306
62.0186 11.0 
78.9942 51.0 
79.0542 828.0 
91.0542 454.0 
95.0491 6.0 
107.0491 999.0 
110.9663 9.0 
124.982 476.0 
135.044 403.0 
135.0801 44.0 
142.9926 107.0 
151.021 27.0 
157.0084 21.0 
END IONS

BEGIN IONS
SYNON=diethoxy-sulfanylidene-(3,5,6-trichloropyridin-2-yl)oxy-{5}-phosphane
INCHIKEY=SBPBAQFWLVIOKP-UHFFFAOYSA-N
INCHI=InChI=1S/C9H11Cl3NO3PS/c1-3-14-17(18,15-4-2)16-9-7(11)5-6(10)8(12)13-9/h5H,3-4H2,1-2H3
SMILES=Clc1c(OP(=S)(OCC)OCC)nc(Cl)c(Cl)c1
INSTRUMENT_TYPE=LC-ESI-ITFT
INSTRUMENT=LTQ Orbitrap XL Thermo Scientific
COLLISION_ENERGY=75 % (nominal)
FORMULA=C9H11Cl3NO3PS
PARENT=349.9336
SPLASH=splash10-01ot-2900000000-3169dbfdf2b277cfa7c0
NUM_PEAKS=25
COMPOUND_NAME=Chlorpyrifos
SPECTRUM_ID=MSBNK-Eawag-EA295006
ADDUCT=[M+H]+
MS_LEVEL=MS2
PRECURSOR_MZ=349.9336
IONMODE=positive
NOMINAL_MASS=349
PARENT_MASS=348.9263
64.9787 5.0 
78.9401 9.0 
80.9737 1.0 
96.9508 591.0 
98.9844 5.0 
106.945 223.0 
109.0048 3.0 
110.9666 4.0 
114.9613 999.0 
133.9559 189.0 
149.9512 2.0 
150.917 61.0 
161.9511 20.0 
177.9281 63.0 
178.9362 5.0 
179.9173 40.0 
179.9615 229.0 
195.9382 10.0 
197.9274 601.0 
211.889 17.0 
212.8966 18.0 
213.9047 136.0 
229.8996 10.0 
275.8609 10.0 
321.9204 18.0 
END IONS

BEGIN IONS
SYNON=(1E)-N-(methylcarbamoyloxy)ethanimidothioic acid methyl ester
INCHIKEY=UHXUZOCRWCRNSJ-QPJJXVBHSA-N
INCHI=InChI=1S/C5H10N2O2S/c1-4(10-3)7-9-5(8)6-2/h1-3H3,(H,6,8)/b7-4+
SMILES=C/C(=N\OC(=O)NC)SC
INSTRUMENT_TYPE=LC-ESI-ITFT
INSTRUMENT=LTQ Orbitrap XL Thermo Scientific
COLLISION_ENERGY=30 % (nominal)
FORMULA=C5H10N2O2S
PARENT=163.0536
SPLASH=splash10-052r-9500000000-c048d4fb7391b51e8092
NUM_PEAKS=8
COMPOUND_NAME=Methomyl
SPECTRUM_ID=MSBNK-Eawag-EA294203
ADDUCT=[M+H]+
MS_LEVEL=MS2
PRECURSOR_MZ=163.0536
IONMODE=positive
NOMINAL_MASS=162
PARENT_MASS=162.0463
56.0495 7.0 
58.0287 38.0 
61.0106 5.0 
65.0056 45.0 
88.0215 999.0 
89.0599 6.0 
106.0322 713.0 
107.0705 2.0 
END IONS

BEGIN IONS
SYNON=(3,5-dimethyl-4-methylsulfanyl-phenyl) N-methylcarbamate
INCHIKEY=YFBPRJGDJKVWAH-UHFFFAOYSA-N
INCHI=InChI=1S/C11H15NO2S/c1-7-5-9(14-11(13)12-3)6-8(2)10(7)15-4/h5-6H,1-4H3,(H,12,13)
SMILES=O=C(Oc1cc(c(SC)c(c1)C)C)NC
INSTRUMENT_TYPE=LC-ESI-ITFT
INSTRUMENT=LTQ Orbitrap XL Thermo Scientific
COLLISION_ENERGY=35 % (nominal)
FORMULA=C11H15NO2S
PARENT=226.0896
SPLASH=splash10-014i-0900000000-1708012e40a95c6160e2
NUM_PEAKS=4
COMPOUND_NAME=Methiocarb
SPECTRUM_ID=MSBNK-Eawag-EA293701
ADDUCT=[M+H]+
MS_LEVEL=MS2
PRECURSOR_MZ=226.0896
IONMODE=positive
NOMINAL_MASS=225
PARENT_MASS=225.0823
121.0649 21.0 
122.0727 2.0 
154.0443 1.0 
169.0683 999.0 
END IONS

BEGIN IONS
SYNON=ethyl 2-diethoxyphosphinothioyloxy-5-methylpyrazolo[1,5-a]pyrimidine-6-carboxylate
INCHIKEY=JOOMJVFZQRQWKR-UHFFFAOYSA-N
INCHI=InChI=1S/C14H20N3O5PS/c1-5-19-14(18)11-9-17-12(15-10(11)4)8-13(16-17)22-23(24,20-6-2)21-7-3/h8-9H,5-7H2,1-4H3
SMILES=CCOC(=O)C1=CN2C(=CC(=N2)OP(=S)(OCC)OCC)N=C1C
INSTRUMENT_TYPE=LC-ESI-QFT
INSTRUMENT=Exploris 240 Orbitrap Thermo Scientific
COLLISION_ENERGY=30 % (nominal)
FORMULA=C14H20N3O5PS
PARENT=374.0934
SPLASH=splash10-00di-0096000000-072b85a3887cd05c8878
NUM_PEAKS=17
COMPOUND_NAME=Pyrazophos
SPECTRUM_ID=MSBNK-Eawag-EQ01139402
ADDUCT=[M+H]+
MS_LEVEL=MS2
PRECURSOR_MZ=374.0934
IONMODE=positive
NOMINAL_MASS=373
PARENT_MASS=373.0861
93.0099 5.0 
113.9535 4.0 
125.9895 8.0 
141.9845 10.0 
170.0162 29.0 
192.0226 7.0 
194.0562 39.0 
205.0845 33.0 
211.0529 40.0 
222.0873 999.0 
236.0484 44.0 
238.0645 287.0 
300.0201 32.0 
318.0307 65.0 
328.0508 25.0 
346.062 258.0 
374.0935 617.0 
END IONS

BEGIN IONS
SYNON=diethoxy-sulfanylidene-(3,5,6-trichloropyridin-2-yl)oxy-{5}-phosphane
INCHIKEY=SBPBAQFWLVIOKP-UHFFFAOYSA-N
INCHI=InChI=1S/C9H11Cl3NO3PS/c1-3-14-17(18,15-4-2)16-9-7(11)5-6(10)8(12)13-9/h5H,3-4H2,1-2H3
SMILES=Clc1c(OP(=S)(OCC)OCC)nc(Cl)c(Cl)c1
INSTRUMENT_TYPE=LC-ESI-ITFT
INSTRUMENT=LTQ Orbitrap XL Thermo Scientific
COLLISION_ENERGY=90 % (nominal)
FORMULA=C9H11Cl3NO3PS
PARENT=349.9336
SPLASH=splash10-08fs-2900000000-b9485df818d11c39fef7
NUM_PEAKS=29
COMPOUND_NAME=Chlorpyrifos
SPECTRUM_ID=MSBNK-Eawag-EA295007
ADDUCT=[M+H]+
MS_LEVEL=MS2
PRECURSOR_MZ=349.9336
IONMODE=positive
NOMINAL_MASS=349
PARENT_MASS=348.9263
64.9787 31.0 
78.9402 34.0 
96.9507 582.0 
98.9845 5.0 
106.9449 572.0 
110.9663 2.0 
114.9613 999.0 
118.9449 19.0 
122.9401 2.0 
128.9774 2.0 
133.9559 263.0 
134.9398 3.0 
141.9509 4.0 
143.9401 10.0 
149.9514 2.0 
150.917 120.0 
161.9508 49.0 
176.9198 12.0 
177.9279 54.0 
178.9355 8.0 
179.917 121.0 
179.9614 144.0 
195.9392 5.0 
197.9273 294.0 
211.8887 12.0 
212.8963 9.0 
213.9045 39.0 
293.8853 3.0 
321.9201 14.0 
END IONS

BEGIN IONS
SYNON=N,N-dimethylcarbamic acid [2-(dimethylamino)-5,6-dimethyl-4-pyrimidinyl] ester
INCHIKEY=YFGYUFNIOHWBOB-UHFFFAOYSA-N
INCHI=InChI=1S/C11H18N4O2/c1-7-8(2)12-10(14(3)4)13-9(7)17-11(16)15(5)6/h1-6H3
SMILES=n(c(c(C)c1OC(=O)N(C)C)C)c(n1)N(C)C
INSTRUMENT_TYPE=LC-ESI-ITFT
INSTRUMENT=LTQ Orbitrap XL Thermo Scientific
COLLISION_ENERGY=75 % (nominal)
FORMULA=C11H18N4O2
PARENT=239.1503
SPLASH=splash10-00di-9300000000-17ea2336bfa68f4a56ec
NUM_PEAKS=14
COMPOUND_NAME=Pirimicarb
SPECTRUM_ID=MSBNK-Eawag-EA271106
ADDUCT=[M+H]+
MS_LEVEL=MS2
PRECURSOR_MZ=239.1503
IONMODE=positive
NOMINAL_MASS=238
PARENT_MASS=238.1430
56.013 4.0 
72.0445 999.0 
83.024 30.0 
85.076 104.0 
109.076 101.0 
124.0631 9.0 
137.0709 48.0 
138.0787 42.0 
150.1025 32.0 
152.082 28.0 
156.0531 2.0 
167.1054 16.0 
180.1135 2.0 
182.1288 101.0 
END IONS

BEGIN IONS
SYNON=N-[ethoxy-(3-methyl-4-methylsulfanylphenoxy)phosphoryl]propan-2-amine
INCHIKEY=ZCJPOPBZHLUFHF-UHFFFAOYSA-N
INCHI=InChI=1S/C13H22NO3PS/c1-6-16-18(15,14-10(2)3)17-12-7-8-13(19-5)11(4)9-12/h7-10H,6H2,1-5H3,(H,14,15)
SMILES=CCOP(=O)(NC(C)C)OC1=CC(=C(C=C1)SC)C
INSTRUMENT_TYPE=LC-ESI-QFT
INSTRUMENT=Exploris 240 Orbitrap Thermo Scientific
COLLISION_ENERGY=75 % (nominal)
FORMULA=C13H22NO3PS
PARENT=304.1131
SPLASH=splash10-0udi-1490000000-9bc0606eda269907b4e1
NUM_PEAKS=31
COMPOUND_NAME=Fenamiphos
SPECTRUM_ID=MSBNK-Eawag-EQ01124705
ADDUCT=[M+H]+
MS_LEVEL=MS2
PRECURSOR_MZ=304.1131
IONMODE=positive
NOMINAL_MASS=303
PARENT_MASS=303.1058
58.995 26.0 
60.0807 20.0 
77.0387 13.0 
79.054 33.0 
79.9895 10.0 
91.0542 44.0 
93.0699 25.0 
97.0105 69.0 
97.9998 10.0 
103.0538 26.0 
104.0621 31.0 
107.049 107.0 
108.0569 68.0 
109.0646 27.0 
122.0184 35.0 
125.0419 13.0 
135.0265 16.0 
137.0417 47.0 
138.0131 20.0 
139.0213 32.0 
140.029 8.0 
153.0368 119.0 
155.0525 27.0 
168.9869 67.0 
169.0047 20.0 
184.9814 34.0 
198.9976 38.0 
201.9847 999.0 
202.9924 44.0 
214.9933 14.0 
217.0082 338.0 
END IONS

BEGIN IONS
SYNON=3-(dimethoxyphosphinothioylsulfanylmethyl)-1,2,3-benzotriazin-4-one
INCHIKEY=CJJOSEISRRTUQB-UHFFFAOYSA-N
INCHI=InChI=1S/C10H12N3O3PS2/c1-15-17(18,16-2)19-7-13-10(14)8-5-3-4-6-9(8)11-12-13/h3-6H,7H2,1-2H3
SMILES=COP(=S)(OC)SCN1C(=O)C2=CC=CC=C2N=N1
INSTRUMENT_TYPE=LC-ESI-QFT
INSTRUMENT=Q Exactive Plus Orbitrap Thermo Scientific
COLLISION_ENERGY=150 (nominal)
FORMULA=C10H12N3O3PS2
PARENT=318.013
SPLASH=splash10-0udi-9000000000-f7e10b3edf059b75cd0c
NUM_PEAKS=46
COMPOUND_NAME=Azinphos-methyl
SPECTRUM_ID=MSBNK-Eawag-EQ365508
ADDUCT=[M+H]+
MS_LEVEL=MS2
PRECURSOR_MZ=318.013
IONMODE=positive
NOMINAL_MASS=317
PARENT_MASS=317.00577
50.0152 406.0 
51.023 999.0 
52.0183 8.0 
52.0308 10.0 
53.0023 13.0 
53.0386 43.0 
59.9665 24.0 
62.0152 3.0 
62.0185 2.0 
62.9454 8.0 
62.9995 19.0 
63.023 32.0 
64.0182 2.0 
64.0309 3.0 
64.9787 2.0 
65.0022 22.0 
65.0386 14.0 
66.0101 9.0 
66.0464 15.0 
67.0543 2.0 
68.9794 17.0 
69.9872 11.0 
74.0152 61.0 
75.0103 11.0 
75.023 93.0 
76.0182 47.0 
76.0308 17.0 
77.0386 125.0 
78.0339 2.0 
78.0464 3.0 
78.9944 42.0 
81.01 4.0 
81.0335 7.0 
81.9872 2.0 
92.0256 4.0 
92.0369 2.0 
93.01 9.0 
94.0414 3.0 
94.995 10.0 
95.0493 136.0 
96.0028 3.0 
97.0049 2.0 
102.0338 2.0 
104.0496 16.0 
108.0027 8.0 
127.9923 2.0 
END IONS

BEGIN IONS
SYNON=diethoxy-sulfanylidene-(3,5,6-trichloropyridin-2-yl)oxy-{5}-phosphane
INCHIKEY=SBPBAQFWLVIOKP-UHFFFAOYSA-N
INCHI=InChI=1S/C9H11Cl3NO3PS/c1-3-14-17(18,15-4-2)16-9-7(11)5-6(10)8(12)13-9/h5H,3-4H2,1-2H3
SMILES=Clc1c(OP(=S)(OCC)OCC)nc(Cl)c(Cl)c1
INSTRUMENT_TYPE=LC-ESI-ITFT
INSTRUMENT=LTQ Orbitrap XL Thermo Scientific
COLLISION_ENERGY=60 % (nominal)
FORMULA=C9H11Cl3NO3PS
PARENT=349.9336
SPLASH=splash10-01ot-2910000000-b384378ff2454771bc14
NUM_PEAKS=24
COMPOUND_NAME=Chlorpyrifos
SPECTRUM_ID=MSBNK-Eawag-EA295005
ADDUCT=[M+H]+
MS_LEVEL=MS2
PRECURSOR_MZ=349.9336
IONMODE=positive
NOMINAL_MASS=349
PARENT_MASS=348.9263
64.9789 2.0 
96.9508 563.0 
98.9842 3.0 
106.945 32.0 
109.005 1.0 
110.9662 2.0 
114.9614 946.0 
116.9658 2.0 
124.9822 12.0 
128.9766 3.0 
133.956 42.0 
150.9169 7.0 
161.9509 8.0 
177.9279 17.0 
179.9615 111.0 
195.939 4.0 
196.9186 2.0 
197.9275 999.0 
211.8894 5.0 
212.8971 9.0 
213.9047 214.0 
229.8995 12.0 
275.8606 41.0 
321.9199 18.0 
END IONS

BEGIN IONS
SYNON=[amino(methylsulfanyl)phosphoryl]oxymethane
INCHIKEY=NNKVPIKMPCQWCG-UHFFFAOYSA-N
INCHI=InChI=1S/C2H8NO2PS/c1-5-6(3,4)7-2/h1-2H3,(H2,3,4)
SMILES=COP(=O)(N)SC
INSTRUMENT_TYPE=LC-ESI-QFT
INSTRUMENT=Exploris 240 Orbitrap Thermo Scientific
COLLISION_ENERGY=150 % (nominal)
FORMULA=C2H8NO2PS
PARENT=142.0086
SPLASH=splash10-0002-9000000000-6a56a529cb9f700953a4
NUM_PEAKS=10
COMPOUND_NAME=Methamidophos
SPECTRUM_ID=MSBNK-Eawag-EQ01128008
ADDUCT=[M+H]+
MS_LEVEL=MS2
PRECURSOR_MZ=142.0086
IONMODE=positive
NOMINAL_MASS=141
PARENT_MASS=141.0013
44.9793 480.0 
45.9841 87.0 
46.9681 379.0 
46.995 999.0 
62.0185 24.0 
63.9947 605.0 
64.9788 34.0 
78.9944 220.0 
79.9895 43.0 
94.0053 149.0 
END IONS

BEGIN IONS
SYNON=methyl N-[methyl-[methyl-(1-methylsulfanylethylideneamino)oxycarbonylamino]sulfanylcarbamoyl]oxyethanimidothioate
INCHIKEY=XDOTVMNBCQVZKG-UHFFFAOYSA-N
INCHI=InChI=1S/C10H18N4O4S3/c1-7(19-5)11-17-9(15)13(3)21-14(4)10(16)18-12-8(2)20-6/h1-6H3
SMILES=CC(=NOC(=O)N(C)SN(C)C(=O)ON=C(C)SC)SC
INSTRUMENT_TYPE=LC-ESI-QFT
INSTRUMENT=Exploris 240 Orbitrap Thermo Scientific
COLLISION_ENERGY=30 % (nominal)
FORMULA=C10H18N4O4S3
PARENT=355.0563
SPLASH=splash10-000i-9300000000-6d0ffa59345e9dc0797b
NUM_PEAKS=16
COMPOUND_NAME=Thiodicarb
SPECTRUM_ID=MSBNK-Eawag-EQ01131402
ADDUCT=[M+H]+
MS_LEVEL=MS2
PRECURSOR_MZ=355.0563
IONMODE=positive
NOMINAL_MASS=354
PARENT_MASS=354.0490
56.0494 9.0 
59.9901 4.0 
61.0107 5.0 
62.0058 21.0 
65.0055 6.0 
72.9983 7.0 
74.0061 3.0 
78.967 56.0 
80.9827 5.0 
88.0215 999.0 
106.0318 13.0 
107.9935 357.0 
122.0269 5.0 
149.0201 26.0 
163.0536 5.0 
190.9575 20.0 
END IONS

BEGIN IONS
SYNON=diethoxy-(4-nitrophenoxy)-sulfanylidene-$l^{5}-phosphane
INCHIKEY=LCCNCVORNKJIRZ-UHFFFAOYSA-N
INCHI=InChI=1S/C10H14NO5PS/c1-3-14-17(18,15-4-2)16-10-7-5-9(6-8-10)11(12)13/h5-8H,3-4H2,1-2H3
SMILES=S=P(Oc1ccc(cc1)[N+]([O-])=O)(OCC)OCC
INSTRUMENT_TYPE=LC-ESI-QFT
INSTRUMENT=Q Exactive Orbitrap Thermo Scientific
COLLISION_ENERGY=45 (nominal)
FORMULA=C10H14NO5PS
PARENT=292.0403
SPLASH=splash10-000l-1940000000-218556da13b43e16e2bf
NUM_PEAKS=54
COMPOUND_NAME=Parathion
SPECTRUM_ID=MSBNK-Eawag-EQ311503
ADDUCT=[M+H]+
MS_LEVEL=MS2
PRECURSOR_MZ=292.0403
IONMODE=positive
NOMINAL_MASS=291
PARENT_MASS=291.03303
64.9786 5.0 
65.0384 6.0 
66.0464 4.0 
75.0228 1.0 
78.0338 4.0 
80.0494 3.0 
80.9733 3.0 
92.0494 10.0 
94.0412 403.0 
96.9507 4.0 
97.0108 1.0 
98.0059 3.0 
98.0183 1.0 
98.9842 9.0 
105.0698 4.0 
108.0025 1.0 
108.0444 6.0 
109.0104 5.0 
110.0184 264.0 
111.0439 3.0 
114.9612 369.0 
121.0396 5.0 
122.0235 1.0 
123.0313 304.0 
123.9974 1.0 
125.0054 23.0 
126.0132 22.0 
127.0211 1.0 
132.9718 5.0 
137.0165 1.0 
138.0007 17.0 
139.0085 30.0 
140.0341 475.0 
150.0298 6.0 
153.9956 17.0 
156.0112 258.0 
171.9741 50.0 
174.0076 75.0 
174.0219 4.0 
184.9878 1.0 
187.9693 9.0 
188.9769 16.0 
189.9847 328.0 
200.9644 1.0 
202.9976 3.0 
204.9717 7.0 
205.9795 21.0 
216.9828 6.0 
217.9672 13.0 
218.9749 67.0 
220.0004 41.0 
221.9749 3.0 
235.9776 999.0 
253.9881 66.0 
END IONS

BEGIN IONS
SYNON=diethoxy-(2-isopropyl-6-methyl-pyrimidin-4-yl)oxy-thioxo-phosphorane
INCHIKEY=FHIVAFMUCKRCQO-UHFFFAOYSA-N
INCHI=InChI=1S/C12H21N2O3PS/c1-6-15-18(19,16-7-2)17-11-8-10(5)13-12(14-11)9(3)4/h8-9H,6-7H2,1-5H3
SMILES=O(c1nc(nc(c1)C)C(C)C)P(OCC)(OCC)=S
INSTRUMENT_TYPE=LC-ESI-ITFT
INSTRUMENT=LTQ Orbitrap XL Thermo Scientific
COLLISION_ENERGY=90 % (nominal)
FORMULA=C12H21N2O3PS
PARENT=305.1083
SPLASH=splash10-0w2a-7900000000-37289512a80be0d06b70
NUM_PEAKS=19
COMPOUND_NAME=Diazinon
SPECTRUM_ID=MSBNK-Eawag-EA029313
ADDUCT=[M+H]+
MS_LEVEL=MS2
PRECURSOR_MZ=305.1083
IONMODE=positive
NOMINAL_MASS=304
PARENT_MASS=304.1011
58.995 26.0 
64.9787 20.0 
67.0417 54.0 
70.0651 184.0 
78.9403 24.0 
80.9736 40.0 
82.995 20.0 
84.0444 487.0 
90.9944 17.0 
96.9508 862.0 
98.9842 168.0 
100.0216 999.0 
109.0049 73.0 
114.9614 668.0 
153.0481 43.0 
153.1023 160.0 
154.056 59.0 
169.0794 433.0 
305.1095 16.0 
END IONS

BEGIN IONS
SYNON=3-(dimethoxyphosphinothioylsulfanylmethyl)-1,2,3-benzotriazin-4-one
INCHIKEY=CJJOSEISRRTUQB-UHFFFAOYSA-N
INCHI=InChI=1S/C10H12N3O3PS2/c1-15-17(18,16-2)19-7-13-10(14)8-5-3-4-6-9(8)11-12-13/h3-6H,7H2,1-2H3
SMILES=COP(=S)(OC)SCN1C(=O)C2=CC=CC=C2N=N1
INSTRUMENT_TYPE=LC-ESI-QFT
INSTRUMENT=Q Exactive Plus Orbitrap Thermo Scientific
COLLISION_ENERGY=60 (nominal)
FORMULA=C10H12N3O3PS2
PARENT=318.013
SPLASH=splash10-0kbg-5900000000-ab4af249057fdadcc0cd
NUM_PEAKS=42
COMPOUND_NAME=Azinphos-methyl
SPECTRUM_ID=MSBNK-Eawag-EQ365504
ADDUCT=[M+H]+
MS_LEVEL=MS2
PRECURSOR_MZ=318.013
IONMODE=positive
NOMINAL_MASS=317
PARENT_MASS=317.00577
50.0151 13.0 
51.023 56.0 
53.0386 183.0 
55.0179 10.0 
59.9665 7.0 
62.0185 58.0 
62.9995 6.0 
65.0385 2.0 
67.0542 15.0 
68.9971 2.0 
75.023 6.0 
77.0386 180.0 
78.0339 7.0 
78.9944 395.0 
81.0336 23.0 
92.0257 3.0 
92.0495 1.0 
93.0101 19.0 
95.0492 695.0 
96.0444 10.0 
97.005 3.0 
102.034 19.0 
104.0496 323.0 
105.0336 421.0 
105.0448 409.0 
106.0419 1.0 
109.0108 13.0 
109.0649 2.0 
120.0445 27.0 
122.0599 1.0 
124.9822 116.0 
127.0155 5.0 
130.0401 120.0 
132.0445 154.0 
137.0057 36.0 
142.9928 999.0 
150.0551 16.0 
151.9928 38.0 
152.9829 2.0 
157.0085 16.0 
167.0163 76.0 
167.9699 29.0 
END IONS

BEGIN IONS
SYNON=2,2-bis(chloranyl)ethenyl dimethyl phosphate
INCHIKEY=OEBRKCOSUFCWJD-UHFFFAOYSA-N
INCHI=InChI=1S/C4H7Cl2O4P/c1-8-11(7,9-2)10-3-4(5)6/h3H,1-2H3
SMILES=O=P(O\C=C(/Cl)Cl)(OC)OC
INSTRUMENT_TYPE=LC-ESI-QFT
INSTRUMENT=Q Exactive Orbitrap Thermo Scientific
COLLISION_ENERGY=90 (nominal)
FORMULA=C4H7Cl2O4P
PARENT=220.9532
SPLASH=splash10-004i-6900000000-8c14f2901d28ffb6e55a
NUM_PEAKS=19
COMPOUND_NAME=Dichlorvos
SPECTRUM_ID=MSBNK-Eawag-EQ304706
ADDUCT=[M+H]+
MS_LEVEL=MS2
PRECURSOR_MZ=220.9532
IONMODE=positive
NOMINAL_MASS=220
PARENT_MASS=219.94590
59.9763 72.0 
62.9997 3.0 
64.9787 17.0 
72.9841 2.0 
75.971 11.0 
76.9788 27.0 
78.9943 631.0 
81.0099 3.0 
82.9449 14.0 
94.9449 60.0 
94.9891 5.0 
96.9604 67.0 
97.0049 39.0 
98.9842 19.0 
109.0049 10.0 
111.9476 27.0 
112.9998 236.0 
127.0154 999.0 
130.9658 10.0 
END IONS

BEGIN IONS
SYNON=(3,5-dimethyl-4-methylsulfanyl-phenyl) N-methylcarbamate
INCHIKEY=YFBPRJGDJKVWAH-UHFFFAOYSA-N
INCHI=InChI=1S/C11H15NO2S/c1-7-5-9(14-11(13)12-3)6-8(2)10(7)15-4/h5-6H,1-4H3,(H,12,13)
SMILES=O=C(Oc1cc(c(SC)c(c1)C)C)NC
INSTRUMENT_TYPE=LC-ESI-ITFT
INSTRUMENT=LTQ Orbitrap XL Thermo Scientific
COLLISION_ENERGY=90 % (nominal)
FORMULA=C11H15NO2S
PARENT=226.0896
SPLASH=splash10-05fu-5900000000-088f55b2d81aac2bd516
NUM_PEAKS=36
COMPOUND_NAME=Methiocarb
SPECTRUM_ID=MSBNK-Eawag-EA293713
ADDUCT=[M+H]+
MS_LEVEL=MS2
PRECURSOR_MZ=226.0896
IONMODE=positive
NOMINAL_MASS=225
PARENT_MASS=225.0823
51.023 3.0 
53.0386 46.0 
55.0179 2.0 
58.0288 6.0 
65.0386 14.0 
67.0542 15.0 
77.0387 592.0 
78.0464 26.0 
79.0543 81.0 
81.0335 11.0 
91.0543 741.0 
92.0621 4.0 
93.07 544.0 
94.0413 4.0 
94.0777 25.0 
95.0492 50.0 
95.0856 5.0 
103.0543 45.0 
104.0621 30.0 
105.0448 277.0 
105.07 14.0 
106.0414 3.0 
107.0492 987.0 
108.0569 10.0 
109.0648 15.0 
111.0263 19.0 
119.0605 4.0 
120.0569 3.0 
121.0649 999.0 
122.0727 964.0 
123.0805 14.0 
125.0419 8.0 
126.0498 11.0 
139.0212 12.0 
153.037 8.0 
154.0447 66.0 
END IONS

BEGIN IONS
SYNON=(3,5-dimethyl-4-methylsulfanyl-phenyl) N-methylcarbamate
INCHIKEY=YFBPRJGDJKVWAH-UHFFFAOYSA-N
INCHI=InChI=1S/C11H15NO2S/c1-7-5-9(14-11(13)12-3)6-8(2)10(7)15-4/h5-6H,1-4H3,(H,12,13)
SMILES=O=C(Oc1cc(c(SC)c(c1)C)C)NC
INSTRUMENT_TYPE=LC-ESI-ITFT
INSTRUMENT=LTQ Orbitrap XL Thermo Scientific
COLLISION_ENERGY=15 % (nominal)
FORMULA=C11H15NO2S
PARENT=226.0896
SPLASH=splash10-014i-0900000000-599c77bfbdc57e4f5cda
NUM_PEAKS=6
COMPOUND_NAME=Methiocarb
SPECTRUM_ID=MSBNK-Eawag-EA293702
ADDUCT=[M+H]+
MS_LEVEL=MS2
PRECURSOR_MZ=226.0896
IONMODE=positive
NOMINAL_MASS=225
PARENT_MASS=225.0823
121.065 141.0 
122.0725 8.0 
123.0804 1.0 
141.0736 1.0 
169.0682 999.0 
226.0898 80.0 
END IONS

BEGIN IONS
SYNON=N-[ethoxy-(3-methyl-4-methylsulfanylphenoxy)phosphoryl]propan-2-amine
INCHIKEY=ZCJPOPBZHLUFHF-UHFFFAOYSA-N
INCHI=InChI=1S/C13H22NO3PS/c1-6-16-18(15,14-10(2)3)17-12-7-8-13(19-5)11(4)9-12/h7-10H,6H2,1-5H3,(H,14,15)
SMILES=CCOP(=O)(NC(C)C)OC1=CC(=C(C=C1)SC)C
INSTRUMENT_TYPE=LC-ESI-QFT
INSTRUMENT=Exploris 240 Orbitrap Thermo Scientific
COLLISION_ENERGY=150 % (nominal)
FORMULA=C13H22NO3PS
PARENT=304.1131
SPLASH=splash10-00or-9300000000-cc983b16d27296c37c92
NUM_PEAKS=28
COMPOUND_NAME=Fenamiphos
SPECTRUM_ID=MSBNK-Eawag-EQ01124708
ADDUCT=[M+H]+
MS_LEVEL=MS2
PRECURSOR_MZ=304.1131
IONMODE=positive
NOMINAL_MASS=303
PARENT_MASS=303.1058
51.0228 274.0 
53.0386 375.0 
58.9951 208.0 
62.9453 86.0 
65.0385 626.0 
66.0464 941.0 
68.9794 65.0 
70.9949 48.0 
77.0385 967.0 
78.0464 999.0 
79.0541 393.0 
79.9894 72.0 
84.0024 183.0 
89.0384 94.0 
91.0542 587.0 
94.0411 54.0 
95.0492 254.0 
97.0107 342.0 
98.0003 60.0 
103.0542 132.0 
107.0492 574.0 
109.0105 390.0 
110.0184 641.0 
111.0263 87.0 
121.0106 818.0 
122.0185 80.0 
137.0057 137.0 
138.0132 65.0 
END IONS

BEGIN IONS
SYNON=ethyl 2-diethoxyphosphinothioyloxy-5-methylpyrazolo[1,5-a]pyrimidine-6-carboxylate
INCHIKEY=JOOMJVFZQRQWKR-UHFFFAOYSA-N
INCHI=InChI=1S/C14H20N3O5PS/c1-5-19-14(18)11-9-17-12(15-10(11)4)8-13(16-17)22-23(24,20-6-2)21-7-3/h8-9H,5-7H2,1-4H3
SMILES=CCOC(=O)C1=CN2C(=CC(=N2)OP(=S)(OCC)OCC)N=C1C
INSTRUMENT_TYPE=LC-ESI-QFT
INSTRUMENT=Exploris 240 Orbitrap Thermo Scientific
COLLISION_ENERGY=120 % (nominal)
FORMULA=C14H20N3O5PS
PARENT=374.0934
SPLASH=splash10-0295-9400000000-35161ea9a876ae10bd2a
NUM_PEAKS=50
COMPOUND_NAME=Pyrazophos
SPECTRUM_ID=MSBNK-Eawag-EQ01139407
ADDUCT=[M+H]+
MS_LEVEL=MS2
PRECURSOR_MZ=374.0934
IONMODE=positive
NOMINAL_MASS=373
PARENT_MASS=373.0861
51.023 73.0 
52.0183 59.0 
53.0021 63.0 
54.0338 194.0 
55.0176 40.0 
56.0494 101.0 
64.9787 496.0 
65.0387 87.0 
66.0338 588.0 
67.018 87.0 
67.029 31.0 
67.0416 51.0 
68.0131 321.0 
68.0496 92.0 
70.0286 46.0 
76.0181 45.0 
78.0337 188.0 
78.9402 213.0 
79.0289 26.0 
79.0418 36.0 
80.013 178.0 
80.9735 130.0 
81.0447 96.0 
82.0288 42.0 
92.0494 113.0 
93.0447 905.0 
94.0288 462.0 
95.0604 161.0 
96.9508 999.0 
98.9842 173.0 
105.0448 78.0 
110.035 74.0 
110.9669 34.0 
111.0553 57.0 
113.9538 36.0 
114.9613 436.0 
120.0556 370.0 
121.0397 312.0 
130.0406 54.0 
131.0241 60.0 
134.0483 30.0 
137.0473 26.0 
139.0505 165.0 
148.0507 587.0 
159.0428 72.0 
165.0117 45.0 
166.0609 85.0 
176.0457 163.0 
177.0535 66.0 
194.0558 51.0 
END IONS

BEGIN IONS
SYNON=ethyl 2-dimethoxyphosphinothioylsulfanyl-2-phenylacetate
INCHIKEY=XAMUDJHXFNRLCY-UHFFFAOYSA-N
INCHI=InChI=1S/C12H17O4PS2/c1-4-16-12(13)11(10-8-6-5-7-9-10)19-17(18,14-2)15-3/h5-9,11H,4H2,1-3H3
SMILES=CCOC(=O)C(C1=CC=CC=C1)SP(=S)(OC)OC
INSTRUMENT_TYPE=LC-ESI-QFT
INSTRUMENT=Exploris 240 Orbitrap Thermo Scientific
COLLISION_ENERGY=75 % (nominal)
FORMULA=C12H17O4PS2
PARENT=321.0379
SPLASH=splash10-004i-9400000000-d14add4d05357391b711
NUM_PEAKS=12
COMPOUND_NAME=Phenthoate
SPECTRUM_ID=MSBNK-Eawag-EQ01129205
ADDUCT=[M+H]+
MS_LEVEL=MS2
PRECURSOR_MZ=321.0379
IONMODE=positive
NOMINAL_MASS=320
PARENT_MASS=320.0306
53.0386 6.0 
62.0186 9.0 
77.0385 31.0 
78.9943 74.0 
79.0542 999.0 
91.0542 315.0 
95.0493 11.0 
107.0491 421.0 
124.9821 183.0 
135.044 81.0 
142.9926 48.0 
157.0078 9.0 
END IONS

BEGIN IONS
SYNON=diethoxy-sulfanylidene-(3,5,6-trichloropyridin-2-yl)oxy-{5}-phosphane
INCHIKEY=SBPBAQFWLVIOKP-UHFFFAOYSA-N
INCHI=InChI=1S/C9H11Cl3NO3PS/c1-3-14-17(18,15-4-2)16-9-7(11)5-6(10)8(12)13-9/h5H,3-4H2,1-2H3
SMILES=Clc1c(OP(=S)(OCC)OCC)nc(Cl)c(Cl)c1
INSTRUMENT_TYPE=LC-ESI-ITFT
INSTRUMENT=LTQ Orbitrap XL Thermo Scientific
COLLISION_ENERGY=60 % (nominal)
FORMULA=C9H11Cl3NO3PS
PARENT=349.9336
SPLASH=splash10-01ot-2900000000-9bb1451e70826e7e9a9f
NUM_PEAKS=27
COMPOUND_NAME=Chlorpyrifos
SPECTRUM_ID=MSBNK-Eawag-EA295011
ADDUCT=[M+H]+
MS_LEVEL=MS2
PRECURSOR_MZ=349.9336
IONMODE=positive
NOMINAL_MASS=349
PARENT_MASS=348.9263
64.9785 1.0 
78.9402 2.0 
80.9737 1.0 
96.9507 535.0 
98.9843 2.0 
106.9449 31.0 
109.0047 1.0 
110.9663 4.0 
114.9613 951.0 
124.982 8.0 
128.977 1.0 
133.9558 40.0 
142.9928 2.0 
149.9504 1.0 
150.9169 7.0 
161.9508 6.0 
177.928 14.0 
179.9613 114.0 
195.9384 3.0 
196.9199 1.0 
197.9275 999.0 
211.8893 3.0 
212.8968 8.0 
213.9045 183.0 
275.8603 39.0 
277.8941 2.0 
293.851 1.0 
END IONS

BEGIN IONS
SYNON=(1E)-N-(methylcarbamoyloxy)ethanimidothioic acid methyl ester
INCHIKEY=UHXUZOCRWCRNSJ-QPJJXVBHSA-N
INCHI=InChI=1S/C5H10N2O2S/c1-4(10-3)7-9-5(8)6-2/h1-3H3,(H,6,8)/b7-4+
SMILES=C/C(=N\OC(=O)NC)SC
INSTRUMENT_TYPE=LC-ESI-ITFT
INSTRUMENT=LTQ Orbitrap XL Thermo Scientific
COLLISION_ENERGY=45 % (nominal)
FORMULA=C5H10N2O2S
PARENT=163.0536
SPLASH=splash10-052r-9500000000-6c16bc52b03ec9f35248
NUM_PEAKS=11
COMPOUND_NAME=Methomyl
SPECTRUM_ID=MSBNK-Eawag-EA294210
ADDUCT=[M+H]+
MS_LEVEL=MS2
PRECURSOR_MZ=163.0536
IONMODE=positive
NOMINAL_MASS=162
PARENT_MASS=162.0463
55.0541 1.0 
56.0495 19.0 
57.0698 3.0 
58.0287 53.0 
61.0106 14.0 
65.0056 24.0 
71.9903 1.0 
72.998 32.0 
88.0215 999.0 
89.0595 3.0 
106.0321 645.0 
END IONS

BEGIN IONS
SYNON=N-methylcarbamic acid 1-naphthalenyl ester
INCHIKEY=CVXBEEMKQHEXEN-UHFFFAOYSA-N
INCHI=InChI=1S/C12H11NO2/c1-13-12(14)15-11-8-4-6-9-5-2-3-7-10(9)11/h2-8H,1H3,(H,13,14)
SMILES=c12c(OC(NC)=O)cccc1cccc2
INSTRUMENT_TYPE=LC-ESI-QFT
INSTRUMENT=Q Exactive Orbitrap Thermo Scientific
COLLISION_ENERGY=60 (nominal)
FORMULA=C12H11NO2
PARENT=202.0863
SPLASH=splash10-0002-0900000000-7b62d6908c27fedccefc
NUM_PEAKS=10
COMPOUND_NAME=Carbaryl
SPECTRUM_ID=MSBNK-Eawag-EQ303804
ADDUCT=[M+H]+
MS_LEVEL=MS2
PRECURSOR_MZ=202.0863
IONMODE=positive
NOMINAL_MASS=201
PARENT_MASS=201.07898
58.0288 8.0 
91.0541 7.0 
103.0542 10.0 
115.0541 19.0 
117.0698 265.0 
127.0542 10.0 
144.057 1.0 
145.0649 999.0 
155.0603 142.0 
156.0572 1.0 
END IONS

BEGIN IONS
SYNON=diethoxy-(2-isopropyl-6-methyl-pyrimidin-4-yl)oxy-thioxo-phosphorane
INCHIKEY=FHIVAFMUCKRCQO-UHFFFAOYSA-N
INCHI=InChI=1S/C12H21N2O3PS/c1-6-15-18(19,16-7-2)17-11-8-10(5)13-12(14-11)9(3)4/h8-9H,6-7H2,1-5H3
SMILES=O(c1nc(nc(c1)C)C(C)C)P(OCC)(OCC)=S
INSTRUMENT_TYPE=LC-ESI-ITFT
INSTRUMENT=LTQ Orbitrap XL Thermo Scientific
COLLISION_ENERGY=45 % (nominal)
FORMULA=C12H21N2O3PS
PARENT=305.1083
SPLASH=splash10-0gb9-0900000000-95716b221cd9e83e7d05
NUM_PEAKS=16
COMPOUND_NAME=Diazinon
SPECTRUM_ID=MSBNK-Eawag-EA029304
ADDUCT=[M+H]+
MS_LEVEL=MS2
PRECURSOR_MZ=305.1083
IONMODE=positive
NOMINAL_MASS=304
PARENT_MASS=304.1011
70.0649 3.0 
80.9733 2.0 
84.0445 9.0 
96.9508 138.0 
98.9841 3.0 
100.0215 7.0 
109.0049 14.0 
114.9614 111.0 
124.9822 14.0 
153.1024 570.0 
169.0796 999.0 
181.1338 26.0 
197.1115 4.0 
231.0353 4.0 
249.0462 4.0 
305.1093 34.0 
END IONS

BEGIN IONS
SYNON=3-[(butan-2-ylthio)-ethoxyphosphoryl]-2-thiazolidinone
INCHIKEY=DUFVKSUJRWYZQP-UHFFFAOYSA-N
INCHI=InChI=1S/C9H18NO3PS2/c1-4-8(3)16-14(12,13-5-2)10-6-7-15-9(10)11/h8H,4-7H2,1-3H3
SMILES=O=P(SC(CC)C)(OCC)N1C(=O)SCC1
INSTRUMENT_TYPE=LC-ESI-QFT
INSTRUMENT=Q Exactive Orbitrap Thermo Scientific
COLLISION_ENERGY=45 (nominal)
FORMULA=C9H18NO3PS2
PARENT=284.0538
SPLASH=splash10-0udi-0900000000-5fb09dbac60ce3c52c86
NUM_PEAKS=18
COMPOUND_NAME=Fosthiazate
SPECTRUM_ID=MSBNK-Eawag-EQ305003
ADDUCT=[M+H]+
MS_LEVEL=MS2
PRECURSOR_MZ=284.0538
IONMODE=positive
NOMINAL_MASS=283
PARENT_MASS=283.04657
57.0698 3.0 
61.0106 10.0 
76.0215 6.0 
104.0164 999.0 
114.9611 8.0 
119.9934 14.0 
121.9821 1.0 
124.0156 1.0 
137.9594 24.0 
139.9563 14.0 
139.993 1.0 
165.9719 5.0 
167.9875 4.0 
171.9644 2.0 
181.9492 3.0 
183.9825 9.0 
199.9595 67.0 
227.9909 9.0 
END IONS

BEGIN IONS
SYNON=diethoxy-sulfanylidene-(3,5,6-trichloropyridin-2-yl)oxy-{5}-phosphane
INCHIKEY=SBPBAQFWLVIOKP-UHFFFAOYSA-N
INCHI=InChI=1S/C9H11Cl3NO3PS/c1-3-14-17(18,15-4-2)16-9-7(11)5-6(10)8(12)13-9/h5H,3-4H2,1-2H3
SMILES=Clc1c(OP(=S)(OCC)OCC)nc(Cl)c(Cl)c1
INSTRUMENT_TYPE=LC-ESI-ITFT
INSTRUMENT=LTQ Orbitrap XL Thermo Scientific
COLLISION_ENERGY=15 % (nominal)
FORMULA=C9H11Cl3NO3PS
PARENT=349.9336
SPLASH=splash10-0002-0309000000-e0f5343f2722d612251f
NUM_PEAKS=16
COMPOUND_NAME=Chlorpyrifos
SPECTRUM_ID=MSBNK-Eawag-EA295008
ADDUCT=[M+H]+
MS_LEVEL=MS2
PRECURSOR_MZ=349.9336
IONMODE=positive
NOMINAL_MASS=349
PARENT_MASS=348.9263
96.9508 75.0 
114.9613 69.0 
124.9821 93.0 
142.9926 27.0 
153.0133 29.0 
171.024 50.0 
197.9274 293.0 
213.9045 1.0 
225.959 4.0 
241.9361 1.0 
275.8604 3.0 
293.871 76.0 
303.892 7.0 
321.9022 400.0 
325.9245 1.0 
349.9337 999.0 
END IONS

BEGIN IONS
SYNON=diethoxyphosphinothioylsulfanylmethylsulfanyl-diethoxy-sulfanylidene-lambda5-phosphane
INCHIKEY=RIZMRRKBZQXFOY-UHFFFAOYSA-N
INCHI=InChI=1S/C9H22O4P2S4/c1-5-10-14(16,11-6-2)18-9-19-15(17,12-7-3)13-8-4/h5-9H2,1-4H3
SMILES=CCOP(=S)(OCC)SCSP(=S)(OCC)OCC
INSTRUMENT_TYPE=LC-ESI-QFT
INSTRUMENT=Exploris 240 Orbitrap Thermo Scientific
COLLISION_ENERGY=30 % (nominal)
FORMULA=C9H22O4P2S4
PARENT=384.9949
SPLASH=splash10-00dl-0900000000-1b02c3179084fa480567
NUM_PEAKS=16
COMPOUND_NAME=Ethion
SPECTRUM_ID=MSBNK-Eawag-EQ01136002
ADDUCT=[M+H]+
MS_LEVEL=MS2
PRECURSOR_MZ=384.9949
IONMODE=positive
NOMINAL_MASS=384
PARENT_MASS=383.9876
75.0263 16.0 
96.9508 114.0 
114.9613 123.0 
124.982 255.0 
126.9433 21.0 
128.9767 19.0 
142.9385 999.0 
153.0134 428.0 
154.9752 17.0 
170.9698 906.0 
184.9854 12.0 
185.04 11.0 
199.0011 320.0 
202.9419 22.0 
215.0327 35.0 
230.9731 40.0 
END IONS

BEGIN IONS
SYNON=(1E)-N-(methylcarbamoyloxy)ethanimidothioic acid methyl ester
INCHIKEY=UHXUZOCRWCRNSJ-QPJJXVBHSA-N
INCHI=InChI=1S/C5H10N2O2S/c1-4(10-3)7-9-5(8)6-2/h1-3H3,(H,6,8)/b7-4+
SMILES=C/C(=N\OC(=O)NC)SC
INSTRUMENT_TYPE=LC-ESI-ITFT
INSTRUMENT=LTQ Orbitrap XL Thermo Scientific
COLLISION_ENERGY=60 % (nominal)
FORMULA=C5H10N2O2S
PARENT=163.0536
SPLASH=splash10-052r-9300000000-7208ae44a68a6aefb55a
NUM_PEAKS=9
COMPOUND_NAME=Methomyl
SPECTRUM_ID=MSBNK-Eawag-EA294205
ADDUCT=[M+H]+
MS_LEVEL=MS2
PRECURSOR_MZ=163.0536
IONMODE=positive
NOMINAL_MASS=162
PARENT_MASS=162.0463
56.0495 37.0 
57.0699 3.0 
58.0288 98.0 
61.0107 25.0 
65.0055 18.0 
71.9903 6.0 
72.9981 131.0 
88.0216 999.0 
106.0321 553.0 
END IONS

BEGIN IONS
SYNON=diethoxy-(4-nitrophenoxy)-sulfanylidene-$l^{5}-phosphane
INCHIKEY=LCCNCVORNKJIRZ-UHFFFAOYSA-N
INCHI=InChI=1S/C10H14NO5PS/c1-3-14-17(18,15-4-2)16-10-7-5-9(6-8-10)11(12)13/h5-8H,3-4H2,1-2H3
SMILES=S=P(Oc1ccc(cc1)[N+]([O-])=O)(OCC)OCC
INSTRUMENT_TYPE=LC-ESI-QFT
INSTRUMENT=Q Exactive Orbitrap Thermo Scientific
COLLISION_ENERGY=15 (nominal)
FORMULA=C10H14NO5PS
PARENT=292.0403
SPLASH=splash10-01p9-0090000000-fe8742077ddcdaa84280
NUM_PEAKS=15
COMPOUND_NAME=Parathion
SPECTRUM_ID=MSBNK-Eawag-EQ311501
ADDUCT=[M+H]+
MS_LEVEL=MS2
PRECURSOR_MZ=292.0403
IONMODE=positive
NOMINAL_MASS=291
PARENT_MASS=291.03303
76.0306 1.0 
94.0412 4.0 
96.9505 2.0 
110.0184 1.0 
114.9612 2.0 
139.026 1.0 
140.0339 6.0 
156.0111 3.0 
189.9845 5.0 
235.9775 999.0 
253.9882 50.0 
264.0088 635.0 
268.0034 1.0 
282.0192 4.0 
292.04 271.0 
END IONS

BEGIN IONS
SYNON=ethoxy-ethyl-(phenylthio)-sulfanylidenephosphorane
INCHIKEY=KVGLBTYUCJYMND-UHFFFAOYSA-N
INCHI=InChI=1S/C10H15OPS2/c1-3-11-12(13,4-2)14-10-8-6-5-7-9-10/h5-9H,3-4H2,1-2H3
SMILES=S=P(Sc1ccccc1)(OCC)CC
INSTRUMENT_TYPE=LC-ESI-QFT
INSTRUMENT=Q Exactive Orbitrap Thermo Scientific
COLLISION_ENERGY=15 (nominal)
FORMULA=C10H15OPS2
PARENT=247.0375
SPLASH=splash10-000i-0910000000-ce2f6125213e070baaa5
NUM_PEAKS=12
COMPOUND_NAME=Fonofos
SPECTRUM_ID=MSBNK-Eawag-EQ311201
ADDUCT=[M+H]+
MS_LEVEL=MS2
PRECURSOR_MZ=247.0375
IONMODE=positive
NOMINAL_MASS=246
PARENT_MASS=246.03019
62.9452 3.0 
80.9557 6.0 
108.9871 296.0 
111.0263 3.0 
126.9976 308.0 
137.0185 999.0 
141.0132 2.0 
155.0289 113.0 
169.0445 5.0 
200.9955 49.0 
219.0062 38.0 
247.0375 159.0 
END IONS

BEGIN IONS
SYNON=(2,2-dimethyl-3H-1-benzofuran-7-yl) N-methylcarbamate
INCHIKEY=DUEPRVBVGDRKAG-UHFFFAOYSA-N
INCHI=InChI=1S/C12H15NO3/c1-12(2)7-8-5-4-6-9(10(8)16-12)15-11(14)13-3/h4-6H,7H2,1-3H3,(H,13,14)
SMILES=CC2(C)CC1=C(C(=CC=C1)OC(NC)=O)O2
INSTRUMENT_TYPE=LC-ESI-QFT
INSTRUMENT=Q Exactive Orbitrap Thermo Scientific
COLLISION_ENERGY=15 (nominal)
FORMULA=C12H15NO3
PARENT=222.1125
SPLASH=splash10-014i-0910000000-2fbd40352781317815d9
NUM_PEAKS=10
COMPOUND_NAME=Carbofuran
SPECTRUM_ID=MSBNK-Eawag-EQ304001
ADDUCT=[M+H]+
MS_LEVEL=MS2
PRECURSOR_MZ=222.1125
IONMODE=positive
NOMINAL_MASS=221
PARENT_MASS=221.10519
55.0543 2.0 
58.0287 3.0 
91.0541 1.0 
119.0855 4.0 
123.0439 126.0 
137.0596 8.0 
147.0803 6.0 
165.0909 999.0 
191.0702 1.0 
222.1122 153.0 
END IONS

BEGIN IONS
SYNON=methyl N-[methyl-[methyl-(1-methylsulfanylethylideneamino)oxycarbonylamino]sulfanylcarbamoyl]oxyethanimidothioate
INCHIKEY=XDOTVMNBCQVZKG-UHFFFAOYSA-N
INCHI=InChI=1S/C10H18N4O4S3/c1-7(19-5)11-17-9(15)13(3)21-14(4)10(16)18-12-8(2)20-6/h1-6H3
SMILES=CC(=NOC(=O)N(C)SN(C)C(=O)ON=C(C)SC)SC
INSTRUMENT_TYPE=LC-ESI-QFT
INSTRUMENT=Exploris 240 Orbitrap Thermo Scientific
COLLISION_ENERGY=120 % (nominal)
FORMULA=C10H18N4O4S3
PARENT=355.0563
SPLASH=splash10-00di-9000000000-9a8778f3ff718a1145f0
NUM_PEAKS=12
COMPOUND_NAME=Thiodicarb
SPECTRUM_ID=MSBNK-Eawag-EQ01131407
ADDUCT=[M+H]+
MS_LEVEL=MS2
PRECURSOR_MZ=355.0563
IONMODE=positive
NOMINAL_MASS=354
PARENT_MASS=354.0490
56.0495 166.0 
58.0288 19.0 
58.9951 20.0 
59.9903 192.0 
60.9981 251.0 
61.0107 61.0 
62.0059 234.0 
63.9437 66.0 
71.9902 211.0 
72.9981 999.0 
78.9671 140.0 
88.0215 447.0 
END IONS

BEGIN IONS
SYNON=ethyl 3-[[(2,2-dimethyl-3H-1-benzofuran-7-yl)oxycarbonyl-methylamino]sulfanyl-propan-2-ylamino]propanoate
INCHIKEY=FYZBOYWSHKHDMT-UHFFFAOYSA-N
INCHI=InChI=1S/C20H30N2O5S/c1-7-25-17(23)11-12-22(14(2)3)28-21(6)19(24)26-16-10-8-9-15-13-20(4,5)27-18(15)16/h8-10,14H,7,11-13H2,1-6H3
SMILES=CCOC(=O)CCN(C(C)C)SN(C)C(=O)OC1=CC=CC2=C1OC(C2)(C)C
INSTRUMENT_TYPE=LC-ESI-QFT
INSTRUMENT=Exploris 240 Orbitrap Thermo Scientific
COLLISION_ENERGY=75 % (nominal)
FORMULA=C20H30N2O5S
PARENT=411.1948
SPLASH=splash10-03k9-4900000000-7feb45a1b93fc10fbaae
NUM_PEAKS=40
COMPOUND_NAME=Benfuracarb
SPECTRUM_ID=MSBNK-Eawag-EQ01120505
ADDUCT=[M+H]+
MS_LEVEL=MS2
PRECURSOR_MZ=411.1948
IONMODE=positive
NOMINAL_MASS=410
PARENT_MASS=410.1875
55.0178 105.0 
56.0496 51.0 
58.0288 99.0 
58.9952 19.0 
70.0652 163.0 
73.0285 273.0 
74.0059 594.0 
74.0602 35.0 
78.0006 16.0 
79.0542 28.0 
81.0701 48.0 
84.9743 353.0 
90.0372 180.0 
91.0544 48.0 
97.0106 167.0 
102.0009 314.0 
105.07 102.0 
109.0284 421.0 
109.0646 73.0 
111.0805 40.0 
115.0546 139.0 
116.0621 219.0 
119.0493 33.0 
120.0115 22.0 
120.0569 19.0 
123.0441 63.0 
125.0055 261.0 
125.0422 20.0 
133.0649 108.0 
137.0599 33.0 
143.0492 85.0 
144.0572 447.0 
149.0416 80.0 
153.0011 54.0 
153.0369 173.0 
162.0676 999.0 
167.0158 73.0 
167.0525 92.0 
177.0369 125.0 
195.0476 354.0 
END IONS

BEGIN IONS
SYNON=2,2,2-trichloro-1-dimethoxyphosphorylethanol
INCHIKEY=NFACJZMKEDPNKN-UHFFFAOYSA-N
INCHI=InChI=1S/C4H8Cl3O4P/c1-10-12(9,11-2)3(8)4(5,6)7/h3,8H,1-2H3
SMILES=COP(=O)(C(C(Cl)(Cl)Cl)O)OC
INSTRUMENT_TYPE=LC-ESI-QFT
INSTRUMENT=Exploris 240 Orbitrap Thermo Scientific
COLLISION_ENERGY=60 % (nominal)
FORMULA=C4H8Cl3O4P
PARENT=256.9299
SPLASH=splash10-004i-3900000000-3ba33b9b3f90fc64c5eb
NUM_PEAKS=10
COMPOUND_NAME=Trichlorfon
SPECTRUM_ID=MSBNK-Eawag-EQ01131804
ADDUCT=[M+H]+
MS_LEVEL=MS2
PRECURSOR_MZ=256.9299
IONMODE=positive
NOMINAL_MASS=256
PARENT_MASS=255.9226
62.9994 8.0 
78.9943 302.0 
82.945 92.0 
93.01 57.0 
96.9605 7.0 
97.0049 8.0 
109.0049 381.0 
110.9395 6.0 
113.0 5.0 
127.0154 999.0 
END IONS

BEGIN IONS
SYNON=dimethoxy-sulfanylidene-(3,5,6-trichloropyridin-2-yl)oxy-{5}-phosphane
INCHIKEY=HRBKVYFZANMGRE-UHFFFAOYSA-N
INCHI=InChI=1S/C7H7Cl3NO3PS/c1-12-15(16,13-2)14-7-5(9)3-4(8)6(10)11-7/h3H,1-2H3
SMILES=Clc1c(OP(=S)(OC)OC)nc(Cl)c(Cl)c1
INSTRUMENT_TYPE=LC-ESI-ITFT
INSTRUMENT=LTQ Orbitrap XL Thermo Scientific
COLLISION_ENERGY=35 % (nominal)
FORMULA=C7H7Cl3NO3PS
PARENT=321.9023
SPLASH=splash10-000i-0090000000-c70b4275ab0da505bcc0
NUM_PEAKS=5
COMPOUND_NAME=Chlorpyrifos-methyl
SPECTRUM_ID=MSBNK-Eawag-EA295114
ADDUCT=[M+H]+
MS_LEVEL=MS2
PRECURSOR_MZ=321.9023
IONMODE=positive
NOMINAL_MASS=321
PARENT_MASS=320.8950
124.9821 22.0 
127.015 1.0 
142.9927 2.0 
211.8883 2.0 
289.8759 999.0 
END IONS

BEGIN IONS
SYNON=[3-(dimethylaminomethylideneamino)phenyl] N-methylcarbamate
INCHIKEY=RMFNNCGOSPBBAD-UHFFFAOYSA-N
INCHI=InChI=1S/C11H15N3O2/c1-12-11(15)16-10-6-4-5-9(7-10)13-8-14(2)3/h4-8H,1-3H3,(H,12,15)
SMILES=CNC(=O)OC1=CC=CC(=C1)N=CN(C)C
INSTRUMENT_TYPE=LC-ESI-QFT
INSTRUMENT=Exploris 240 Orbitrap Thermo Scientific
COLLISION_ENERGY=150 % (nominal)
FORMULA=C11H15N3O2
PARENT=222.1237
SPLASH=splash10-014i-9100000000-a67c2f06935b9d2e402d
NUM_PEAKS=5
COMPOUND_NAME=Formetanate
SPECTRUM_ID=MSBNK-Eawag-EQ01126608
ADDUCT=[M+H]+
MS_LEVEL=MS2
PRECURSOR_MZ=222.1237
IONMODE=positive
NOMINAL_MASS=221
PARENT_MASS=221.1164
65.0386 999.0 
81.0574 21.0 
93.0337 48.0 
111.0441 51.0 
121.0399 76.0 
END IONS

BEGIN IONS
SYNON=diethoxy-sulfanylidene-(3,5,6-trichloropyridin-2-yl)oxy-{5}-phosphane
INCHIKEY=SBPBAQFWLVIOKP-UHFFFAOYSA-N
INCHI=InChI=1S/C9H11Cl3NO3PS/c1-3-14-17(18,15-4-2)16-9-7(11)5-6(10)8(12)13-9/h5H,3-4H2,1-2H3
SMILES=Clc1c(OP(=S)(OCC)OCC)nc(Cl)c(Cl)c1
INSTRUMENT_TYPE=LC-ESI-ITFT
INSTRUMENT=LTQ Orbitrap XL Thermo Scientific
COLLISION_ENERGY=35 % (nominal)
FORMULA=C9H11Cl3NO3PS
PARENT=349.9336
SPLASH=splash10-00di-0119000000-40638c6cc56c702af00f
NUM_PEAKS=12
COMPOUND_NAME=Chlorpyrifos
SPECTRUM_ID=MSBNK-Eawag-EA295001
ADDUCT=[M+H]+
MS_LEVEL=MS2
PRECURSOR_MZ=349.9336
IONMODE=positive
NOMINAL_MASS=349
PARENT_MASS=348.9263
96.9508 4.0 
124.9821 8.0 
171.0242 1.0 
197.9275 122.0 
213.9043 5.0 
225.9586 1.0 
241.9369 1.0 
272.9818 1.0 
275.8606 9.0 
293.871 186.0 
303.8919 36.0 
321.9025 999.0 
END IONS

BEGIN IONS
SYNON=(2,2-dimethyl-3H-1-benzofuran-7-yl) N-(dibutylamino)sulfanyl-N-methylcarbamate
INCHIKEY=JLQUFIHWVLZVTJ-UHFFFAOYSA-N
INCHI=InChI=1S/C20H32N2O3S/c1-6-8-13-22(14-9-7-2)26-21(5)19(23)24-17-12-10-11-16-15-20(3,4)25-18(16)17/h10-12H,6-9,13-15H2,1-5H3
SMILES=CCCCN(CCCC)SN(C)C(=O)OC1=CC=CC2=C1OC(C2)(C)C
INSTRUMENT_TYPE=LC-ESI-QFT
INSTRUMENT=Exploris 240 Orbitrap Thermo Scientific
COLLISION_ENERGY=90 % (nominal)
FORMULA=C20H32N2O3S
PARENT=381.2206
SPLASH=splash10-056r-9100000000-4292e7939e6ef913f712
NUM_PEAKS=8
COMPOUND_NAME=Carbosulfan
SPECTRUM_ID=MSBNK-Eawag-EQ01121406
ADDUCT=[M+H]+
MS_LEVEL=MS2
PRECURSOR_MZ=381.2206
IONMODE=positive
NOMINAL_MASS=380
PARENT_MASS=380.2134
55.0542 46.0 
57.0699 526.0 
62.0058 456.0 
72.0808 68.0 
76.0215 999.0 
91.0544 33.0 
118.0687 78.0 
123.0439 187.0 
END IONS

BEGIN IONS
SYNON=ethyl 2-diethoxyphosphinothioyloxy-5-methylpyrazolo[1,5-a]pyrimidine-6-carboxylate
INCHIKEY=JOOMJVFZQRQWKR-UHFFFAOYSA-N
INCHI=InChI=1S/C14H20N3O5PS/c1-5-19-14(18)11-9-17-12(15-10(11)4)8-13(16-17)22-23(24,20-6-2)21-7-3/h8-9H,5-7H2,1-4H3
SMILES=CCOC(=O)C1=CN2C(=CC(=N2)OP(=S)(OCC)OCC)N=C1C
INSTRUMENT_TYPE=LC-ESI-QFT
INSTRUMENT=Exploris 240 Orbitrap Thermo Scientific
COLLISION_ENERGY=75 % (nominal)
FORMULA=C14H20N3O5PS
PARENT=374.0934
SPLASH=splash10-002g-1900000000-588077dbd07fc89b25bf
NUM_PEAKS=30
COMPOUND_NAME=Pyrazophos
SPECTRUM_ID=MSBNK-Eawag-EQ01139405
ADDUCT=[M+H]+
MS_LEVEL=MS2
PRECURSOR_MZ=374.0934
IONMODE=positive
NOMINAL_MASS=373
PARENT_MASS=373.0861
54.0339 6.0 
64.9786 84.0 
80.9736 12.0 
92.0493 9.0 
93.0101 33.0 
93.0445 22.0 
94.0286 26.0 
95.0603 12.0 
96.9507 278.0 
98.9838 16.0 
113.9536 126.0 
114.9614 200.0 
120.0556 41.0 
121.0396 26.0 
139.0506 52.0 
148.0506 263.0 
159.0428 51.0 
166.0611 118.0 
176.0454 768.0 
177.0299 53.0 
177.0533 225.0 
178.0605 11.0 
181.0067 61.0 
183.0222 153.0 
192.022 17.0 
194.056 999.0 
208.0182 12.0 
210.0331 30.0 
211.0534 13.0 
222.0873 29.0 
END IONS

BEGIN IONS
SYNON=2,2-bis(chloranyl)ethenyl dimethyl phosphate
INCHIKEY=OEBRKCOSUFCWJD-UHFFFAOYSA-N
INCHI=InChI=1S/C4H7Cl2O4P/c1-8-11(7,9-2)10-3-4(5)6/h3H,1-2H3
SMILES=O=P(O\C=C(/Cl)Cl)(OC)OC
INSTRUMENT_TYPE=LC-ESI-QFT
INSTRUMENT=Q Exactive Orbitrap Thermo Scientific
COLLISION_ENERGY=45 (nominal)
FORMULA=C4H7Cl2O4P
PARENT=220.9532
SPLASH=splash10-004i-0900000000-65501644b18b2b26ba71
NUM_PEAKS=13
COMPOUND_NAME=Dichlorvos
SPECTRUM_ID=MSBNK-Eawag-EQ304703
ADDUCT=[M+H]+
MS_LEVEL=MS2
PRECURSOR_MZ=220.9532
IONMODE=positive
NOMINAL_MASS=220
PARENT_MASS=219.94590
76.9788 3.0 
78.9943 70.0 
94.9448 3.0 
94.989 1.0 
96.9604 15.0 
97.0049 3.0 
108.9603 1.0 
109.0049 19.0 
112.9997 13.0 
127.0154 999.0 
130.9657 1.0 
144.9815 32.0 
220.9531 39.0 
END IONS

BEGIN IONS
SYNON=diethoxy-(4-nitrophenoxy)-sulfanylidene-$l^{5}-phosphane
INCHIKEY=LCCNCVORNKJIRZ-UHFFFAOYSA-N
INCHI=InChI=1S/C10H14NO5PS/c1-3-14-17(18,15-4-2)16-10-7-5-9(6-8-10)11(12)13/h5-8H,3-4H2,1-2H3
SMILES=S=P(Oc1ccc(cc1)[N+]([O-])=O)(OCC)OCC
INSTRUMENT_TYPE=LC-ESI-QFT
INSTRUMENT=Q Exactive Orbitrap Thermo Scientific
COLLISION_ENERGY=90 (nominal)
FORMULA=C10H14NO5PS
PARENT=292.0403
SPLASH=splash10-01ox-6900000000-80ce5f0f59ebc4a62681
NUM_PEAKS=74
COMPOUND_NAME=Parathion
SPECTRUM_ID=MSBNK-Eawag-EQ311506
ADDUCT=[M+H]+
MS_LEVEL=MS2
PRECURSOR_MZ=292.0403
IONMODE=positive
NOMINAL_MASS=291
PARENT_MASS=291.03303
62.9452 11.0 
63.0229 13.0 
64.0308 8.0 
64.9787 75.0 
65.0385 103.0 
66.0464 117.0 
68.0257 7.0 
68.9792 2.0 
74.015 1.0 
75.0229 79.0 
76.0306 6.0 
77.0383 1.0 
78.0337 1.0 
78.0462 1.0 
78.9401 4.0 
79.0178 2.0 
79.0542 1.0 
81.0335 17.0 
82.0412 5.0 
84.0027 12.0 
91.0542 3.0 
92.0256 55.0 
93.0335 7.0 
94.0412 999.0 
95.049 11.0 
96.0027 10.0 
96.9506 5.0 
97.0106 41.0 
98.0184 5.0 
98.9841 37.0 
100.0071 8.0 
107.0492 3.0 
108.0027 12.0 
109.0106 66.0 
109.0283 35.0 
110.0184 399.0 
110.0361 30.0 
111.0439 80.0 
114.9612 527.0 
120.0568 1.0 
121.0395 81.0 
122.9898 23.0 
123.0313 443.0 
123.9975 10.0 
125.0054 77.0 
126.0132 11.0 
127.0212 6.0 
128.0019 6.0 
132.9719 9.0 
137.0167 6.0 
138.9943 28.0 
139.0085 42.0 
140.0341 34.0 
150.0298 29.0 
153.9954 1.0 
154.9714 64.0 
155.997 29.0 
156.0112 4.0 
170.9663 7.0 
171.974 87.0 
174.0075 77.0 
184.9871 2.0 
187.969 1.0 
188.9769 7.0 
189.9847 12.0 
198.9728 4.0 
200.9644 3.0 
201.0053 1.0 
202.9974 12.0 
204.9717 1.0 
205.9792 2.0 
218.9745 6.0 
221.9749 1.0 
235.9775 1.0 
END IONS

BEGIN IONS
SYNON=diethoxyphosphinothioylsulfanylmethylsulfanyl-diethoxy-sulfanylidene-lambda5-phosphane
INCHIKEY=RIZMRRKBZQXFOY-UHFFFAOYSA-N
INCHI=InChI=1S/C9H22O4P2S4/c1-5-10-14(16,11-6-2)18-9-19-15(17,12-7-3)13-8-4/h5-9H2,1-4H3
SMILES=CCOP(=S)(OCC)SCSP(=S)(OCC)OCC
INSTRUMENT_TYPE=LC-ESI-QFT
INSTRUMENT=Exploris 240 Orbitrap Thermo Scientific
COLLISION_ENERGY=45 % (nominal)
FORMULA=C9H22O4P2S4
PARENT=384.9949
SPLASH=splash10-0006-2900000000-62e93aec16a690082174
NUM_PEAKS=14
COMPOUND_NAME=Ethion
SPECTRUM_ID=MSBNK-Eawag-EQ01136003
ADDUCT=[M+H]+
MS_LEVEL=MS2
PRECURSOR_MZ=384.9949
IONMODE=positive
NOMINAL_MASS=384
PARENT_MASS=383.9876
75.0262 9.0 
96.9508 400.0 
110.9664 14.0 
114.9613 211.0 
124.9821 197.0 
126.9437 24.0 
128.9232 8.0 
142.9385 999.0 
153.0132 69.0 
156.9543 11.0 
170.9698 122.0 
174.9102 18.0 
184.9851 13.0 
199.0018 9.0 
END IONS

BEGIN IONS
SYNON=diethoxyphosphinothioylsulfanylmethylsulfanyl-diethoxy-sulfanylidene-lambda5-phosphane
INCHIKEY=RIZMRRKBZQXFOY-UHFFFAOYSA-N
INCHI=InChI=1S/C9H22O4P2S4/c1-5-10-14(16,11-6-2)18-9-19-15(17,12-7-3)13-8-4/h5-9H2,1-4H3
SMILES=CCOP(=S)(OCC)SCSP(=S)(OCC)OCC
INSTRUMENT_TYPE=LC-ESI-QFT
INSTRUMENT=Exploris 240 Orbitrap Thermo Scientific
COLLISION_ENERGY=180 % (nominal)
FORMULA=C9H22O4P2S4
PARENT=384.9949
SPLASH=splash10-03di-9000000000-1be8c9613e4bfce62341
NUM_PEAKS=5
COMPOUND_NAME=Ethion
SPECTRUM_ID=MSBNK-Eawag-EQ01136009
ADDUCT=[M+H]+
MS_LEVEL=MS2
PRECURSOR_MZ=384.9949
IONMODE=positive
NOMINAL_MASS=384
PARENT_MASS=383.9876
64.9787 999.0 
78.9402 499.0 
96.9508 261.0 
110.9665 19.0 
114.9612 154.0 
END IONS

BEGIN IONS
SYNON=(2,2-dimethyl-3H-1-benzofuran-7-yl) N-methylcarbamate
INCHIKEY=DUEPRVBVGDRKAG-UHFFFAOYSA-N
INCHI=InChI=1S/C12H15NO3/c1-12(2)7-8-5-4-6-9(10(8)16-12)15-11(14)13-3/h4-6H,7H2,1-3H3,(H,13,14)
SMILES=CC2(C)CC1=C(C(=CC=C1)OC(NC)=O)O2
INSTRUMENT_TYPE=LC-ESI-QFT
INSTRUMENT=Q Exactive Orbitrap Thermo Scientific
COLLISION_ENERGY=60 (nominal)
FORMULA=C12H15NO3
PARENT=222.1125
SPLASH=splash10-00di-0900000000-6d70f3e6615ca3686a4e
NUM_PEAKS=22
COMPOUND_NAME=Carbofuran
SPECTRUM_ID=MSBNK-Eawag-EQ304004
ADDUCT=[M+H]+
MS_LEVEL=MS2
PRECURSOR_MZ=222.1125
IONMODE=positive
NOMINAL_MASS=221
PARENT_MASS=221.10519
55.0543 1.0 
58.0288 16.0 
65.0385 1.0 
67.0542 4.0 
91.0541 37.0 
93.0334 1.0 
95.0491 17.0 
105.0333 2.0 
107.049 2.0 
109.0283 5.0 
109.0647 1.0 
110.036 1.0 
111.0439 12.0 
117.0698 1.0 
119.0491 5.0 
119.0854 34.0 
123.0439 999.0 
132.0569 1.0 
137.0596 67.0 
137.0958 3.0 
147.0803 25.0 
165.0908 132.0 
END IONS

BEGIN IONS
SYNON=dimethoxy-sulfanylidene-(3,5,6-trichloropyridin-2-yl)oxy-{5}-phosphane
INCHIKEY=HRBKVYFZANMGRE-UHFFFAOYSA-N
INCHI=InChI=1S/C7H7Cl3NO3PS/c1-12-15(16,13-2)14-7-5(9)3-4(8)6(10)11-7/h3H,1-2H3
SMILES=Clc1c(OP(=S)(OC)OC)nc(Cl)c(Cl)c1
INSTRUMENT_TYPE=LC-ESI-ITFT
INSTRUMENT=LTQ Orbitrap XL Thermo Scientific
COLLISION_ENERGY=30 % (nominal)
FORMULA=C7H7Cl3NO3PS
PARENT=321.9023
SPLASH=splash10-00dl-0920000000-0f721e34e0aa21496d97
NUM_PEAKS=10
COMPOUND_NAME=Chlorpyrifos-methyl
SPECTRUM_ID=MSBNK-Eawag-EA295109
ADDUCT=[M+H]+
MS_LEVEL=MS2
PRECURSOR_MZ=321.9023
IONMODE=positive
NOMINAL_MASS=321
PARENT_MASS=320.8950
78.9943 25.0 
109.0048 16.0 
110.9663 16.0 
124.982 999.0 
127.0154 145.0 
142.9925 780.0 
211.889 2.0 
211.9432 4.0 
289.8759 570.0 
321.902 198.0 
END IONS

BEGIN IONS
SYNON=ethyl 2-diethoxyphosphinothioyloxy-5-methylpyrazolo[1,5-a]pyrimidine-6-carboxylate
INCHIKEY=JOOMJVFZQRQWKR-UHFFFAOYSA-N
INCHI=InChI=1S/C14H20N3O5PS/c1-5-19-14(18)11-9-17-12(15-10(11)4)8-13(16-17)22-23(24,20-6-2)21-7-3/h8-9H,5-7H2,1-4H3
SMILES=CCOC(=O)C1=CN2C(=CC(=N2)OP(=S)(OCC)OCC)N=C1C
INSTRUMENT_TYPE=LC-ESI-QFT
INSTRUMENT=Exploris 240 Orbitrap Thermo Scientific
COLLISION_ENERGY=180 % (nominal)
FORMULA=C14H20N3O5PS
PARENT=374.0934
SPLASH=splash10-02t9-9000000000-0b5b4c6ea931063792e0
NUM_PEAKS=24
COMPOUND_NAME=Pyrazophos
SPECTRUM_ID=MSBNK-Eawag-EQ01139409
ADDUCT=[M+H]+
MS_LEVEL=MS2
PRECURSOR_MZ=374.0934
IONMODE=positive
NOMINAL_MASS=373
PARENT_MASS=373.0861
51.0229 195.0 
52.0182 266.0 
53.0022 185.0 
54.0338 187.0 
55.0178 75.0 
56.0496 74.0 
62.963 71.0 
64.9787 999.0 
65.0386 114.0 
66.0338 633.0 
67.0179 245.0 
67.0418 121.0 
68.013 390.0 
68.0495 84.0 
70.0289 49.0 
76.0181 147.0 
78.034 130.0 
78.9402 430.0 
80.9737 111.0 
93.0446 243.0 
94.0289 110.0 
96.9508 292.0 
98.9844 222.0 
114.9615 133.0 
END IONS

BEGIN IONS
SYNON=diethoxy-(4-nitrophenoxy)-sulfanylidene-$l^{5}-phosphane
INCHIKEY=LCCNCVORNKJIRZ-UHFFFAOYSA-N
INCHI=InChI=1S/C10H14NO5PS/c1-3-14-17(18,15-4-2)16-10-7-5-9(6-8-10)11(12)13/h5-8H,3-4H2,1-2H3
SMILES=S=P(Oc1ccc(cc1)[N+]([O-])=O)(OCC)OCC
INSTRUMENT_TYPE=LC-ESI-QFT
INSTRUMENT=Q Exactive Orbitrap Thermo Scientific
COLLISION_ENERGY=30 (nominal)
FORMULA=C10H14NO5PS
PARENT=292.0403
SPLASH=splash10-000i-0190000000-af44a385ea22b6326819
NUM_PEAKS=23
COMPOUND_NAME=Parathion
SPECTRUM_ID=MSBNK-Eawag-EQ311502
ADDUCT=[M+H]+
MS_LEVEL=MS2
PRECURSOR_MZ=292.0403
IONMODE=positive
NOMINAL_MASS=291
PARENT_MASS=291.03303
92.0494 2.0 
94.0411 14.0 
96.9506 1.0 
108.0443 1.0 
110.0183 9.0 
114.9612 25.0 
123.0312 19.0 
126.0133 1.0 
138.0007 2.0 
139.0085 1.0 
140.034 65.0 
156.0112 41.0 
171.9743 1.0 
174.0079 1.0 
189.9847 52.0 
205.9798 1.0 
217.9667 1.0 
218.975 6.0 
220.0004 3.0 
235.9775 999.0 
253.9881 62.0 
264.0088 34.0 
292.0403 1.0 
END IONS

BEGIN IONS
SYNON=ethyl 2-dimethoxyphosphinothioylsulfanyl-2-phenylacetate
INCHIKEY=XAMUDJHXFNRLCY-UHFFFAOYSA-N
INCHI=InChI=1S/C12H17O4PS2/c1-4-16-12(13)11(10-8-6-5-7-9-10)19-17(18,14-2)15-3/h5-9,11H,4H2,1-3H3
SMILES=CCOC(=O)C(C1=CC=CC=C1)SP(=S)(OC)OC
INSTRUMENT_TYPE=LC-ESI-QFT
INSTRUMENT=Exploris 240 Orbitrap Thermo Scientific
COLLISION_ENERGY=90 % (nominal)
FORMULA=C12H17O4PS2
PARENT=321.0379
SPLASH=splash10-004i-9100000000-ee70bfcdf483fe256455
NUM_PEAKS=12
COMPOUND_NAME=Phenthoate
SPECTRUM_ID=MSBNK-Eawag-EQ01129206
ADDUCT=[M+H]+
MS_LEVEL=MS2
PRECURSOR_MZ=321.0379
IONMODE=positive
NOMINAL_MASS=320
PARENT_MASS=320.0306
53.0386 20.0 
62.0183 7.0 
65.0386 11.0 
77.0385 82.0 
78.9943 72.0 
79.0542 999.0 
91.0542 257.0 
95.0492 27.0 
107.0491 165.0 
124.9821 61.0 
135.044 13.0 
142.9923 17.0 
END IONS

BEGIN IONS
SYNON=2-(dimethoxyphosphinothioylthio)-N-methylacetamide
INCHIKEY=MCWXGJITAZMZEV-UHFFFAOYSA-N
INCHI=InChI=1S/C5H12NO3PS2/c1-6-5(7)4-12-10(11,8-2)9-3/h4H2,1-3H3,(H,6,7)
SMILES=P(SCC(NC)=O)(OC)(OC)=S
INSTRUMENT_TYPE=LC-ESI-ITFT
INSTRUMENT=LTQ Orbitrap XL Thermo Scientific
COLLISION_ENERGY=15 % (nominal)
FORMULA=C5H12NO3PS2
PARENT=230.0069
SPLASH=splash10-0002-0920000000-b6038fef7640e0f6a5e3
NUM_PEAKS=11
COMPOUND_NAME=Dimethoate
SPECTRUM_ID=MSBNK-Eawag-EA276108
ADDUCT=[M+H]+
MS_LEVEL=MS2
PRECURSOR_MZ=230.0069
IONMODE=positive
NOMINAL_MASS=229
PARENT_MASS=228.9996
61.0106 1.0 
88.0215 92.0 
119.994 1.0 
124.9821 71.0 
142.9927 30.0 
156.954 10.0 
158.9697 1.0 
170.9698 389.0 
197.9807 35.0 
198.9647 999.0 
230.0068 358.0 
END IONS

BEGIN IONS
SYNON=3-(diethoxyphosphinothioylsulfanylmethyl)-1,2,3-benzotriazin-4-one
INCHIKEY=RQVGAIADHNPSME-UHFFFAOYSA-N
INCHI=InChI=1S/C12H16N3O3PS2/c1-3-17-19(20,18-4-2)21-9-15-12(16)10-7-5-6-8-11(10)13-14-15/h5-8H,3-4,9H2,1-2H3
SMILES=CCOP(=S)(OCC)SCN1C(=O)C2=CC=CC=C2N=N1
INSTRUMENT_TYPE=LC-ESI-QFT
INSTRUMENT=Q Exactive Plus Orbitrap Thermo Scientific
COLLISION_ENERGY=150 (nominal)
FORMULA=C12H16N3O3PS2
PARENT=346.0443
SPLASH=splash10-0w29-9100000000-9bb29e82ed932a806be3
NUM_PEAKS=44
COMPOUND_NAME=Azinphos-ethyl
SPECTRUM_ID=MSBNK-Eawag-EQ365408
ADDUCT=[M+H]+
MS_LEVEL=MS2
PRECURSOR_MZ=346.0443
IONMODE=positive
NOMINAL_MASS=345
PARENT_MASS=345.03707
50.0152 399.0 
51.023 999.0 
52.0183 4.0 
52.0308 9.0 
53.0023 24.0 
53.0386 57.0 
53.9975 2.0 
55.0179 3.0 
57.9872 4.0 
59.9665 2.0 
62.0151 7.0 
62.9454 12.0 
63.023 32.0 
64.0309 3.0 
64.9788 774.0 
65.0387 350.0 
66.0101 10.0 
66.0465 2.0 
68.9794 140.0 
74.0151 58.0 
75.0229 86.0 
76.0182 39.0 
76.0308 8.0 
77.0386 127.0 
78.0339 3.0 
78.0465 5.0 
78.9403 113.0 
78.9944 10.0 
81.0336 4.0 
81.9872 24.0 
82.995 5.0 
91.0543 2.0 
95.0492 150.0 
96.0445 2.0 
96.9509 56.0 
98.9843 25.0 
102.0339 9.0 
104.0496 28.0 
105.0449 103.0 
108.0029 46.0 
109.0108 52.0 
114.9615 435.0 
121.0107 2.0 
128.9772 10.0 
END IONS

BEGIN IONS
SYNON=ethyl 3-[[(2,2-dimethyl-3H-1-benzofuran-7-yl)oxycarbonyl-methylamino]sulfanyl-propan-2-ylamino]propanoate
INCHIKEY=FYZBOYWSHKHDMT-UHFFFAOYSA-N
INCHI=InChI=1S/C20H30N2O5S/c1-7-25-17(23)11-12-22(14(2)3)28-21(6)19(24)26-16-10-8-9-15-13-20(4,5)27-18(15)16/h8-10,14H,7,11-13H2,1-6H3
SMILES=CCOC(=O)CCN(C(C)C)SN(C)C(=O)OC1=CC=CC2=C1OC(C2)(C)C
INSTRUMENT_TYPE=LC-ESI-QFT
INSTRUMENT=Exploris 240 Orbitrap Thermo Scientific
COLLISION_ENERGY=180 % (nominal)
FORMULA=C20H30N2O5S
PARENT=411.1948
SPLASH=splash10-0gb9-9200000000-6ab9940c4d3aa1df0faf
NUM_PEAKS=21
COMPOUND_NAME=Benfuracarb
SPECTRUM_ID=MSBNK-Eawag-EQ01120509
ADDUCT=[M+H]+
MS_LEVEL=MS2
PRECURSOR_MZ=411.1948
IONMODE=positive
NOMINAL_MASS=410
PARENT_MASS=410.1875
51.023 274.0 
53.0386 614.0 
55.0179 155.0 
56.0496 66.0 
56.9794 382.0 
58.0289 134.0 
58.9951 90.0 
65.0386 464.0 
66.0464 51.0 
68.9794 110.0 
75.023 181.0 
77.0384 216.0 
79.0543 103.0 
81.0336 197.0 
84.9744 379.0 
89.0386 320.0 
91.0542 266.0 
95.0492 102.0 
97.0109 130.0 
105.0451 105.0 
115.0542 999.0 
END IONS

BEGIN IONS
SYNON=diethoxy-sulfanylidene-(3,5,6-trichloropyridin-2-yl)oxy-{5}-phosphane
INCHIKEY=SBPBAQFWLVIOKP-UHFFFAOYSA-N
INCHI=InChI=1S/C9H11Cl3NO3PS/c1-3-14-17(18,15-4-2)16-9-7(11)5-6(10)8(12)13-9/h5H,3-4H2,1-2H3
SMILES=Clc1c(OP(=S)(OCC)OCC)nc(Cl)c(Cl)c1
INSTRUMENT_TYPE=LC-ESI-ITFT
INSTRUMENT=LTQ Orbitrap XL Thermo Scientific
COLLISION_ENERGY=30 % (nominal)
FORMULA=C9H11Cl3NO3PS
PARENT=349.9336
SPLASH=splash10-0002-1920000000-1f0cc45d40a433cd21db
NUM_PEAKS=20
COMPOUND_NAME=Chlorpyrifos
SPECTRUM_ID=MSBNK-Eawag-EA295003
ADDUCT=[M+H]+
MS_LEVEL=MS2
PRECURSOR_MZ=349.9336
IONMODE=positive
NOMINAL_MASS=349
PARENT_MASS=348.9263
96.9507 354.0 
98.9842 1.0 
109.0049 1.0 
114.9613 573.0 
124.9821 151.0 
128.9767 2.0 
142.9927 40.0 
153.0134 35.0 
171.024 54.0 
197.9274 999.0 
213.9046 54.0 
225.9589 9.0 
241.9362 1.0 
275.8604 33.0 
277.8937 3.0 
293.871 316.0 
303.8914 4.0 
321.9022 75.0 
325.9169 1.0 
349.9332 15.0 
END IONS

BEGIN IONS
SYNON=(2,2-dimethyl-3H-1-benzofuran-7-yl) N-(dibutylamino)sulfanyl-N-methylcarbamate
INCHIKEY=JLQUFIHWVLZVTJ-UHFFFAOYSA-N
INCHI=InChI=1S/C20H32N2O3S/c1-6-8-13-22(14-9-7-2)26-21(5)19(23)24-17-12-10-11-16-15-20(3,4)25-18(16)17/h10-12H,6-9,13-15H2,1-5H3
SMILES=CCCCN(CCCC)SN(C)C(=O)OC1=CC=CC2=C1OC(C2)(C)C
INSTRUMENT_TYPE=LC-ESI-QFT
INSTRUMENT=Exploris 240 Orbitrap Thermo Scientific
COLLISION_ENERGY=15 % (nominal)
FORMULA=C20H32N2O3S
PARENT=381.2206
SPLASH=splash10-03xr-0900000000-38aa2f090319cb9d50e5
NUM_PEAKS=7
COMPOUND_NAME=Carbosulfan
SPECTRUM_ID=MSBNK-Eawag-EQ01121401
ADDUCT=[M+H]+
MS_LEVEL=MS2
PRECURSOR_MZ=381.2206
IONMODE=positive
NOMINAL_MASS=380
PARENT_MASS=380.2134
76.0219 11.0 
118.0684 681.0 
128.1432 258.0 
160.1153 999.0 
165.0911 27.0 
195.047 43.0 
222.1123 115.0 
END IONS

BEGIN IONS
SYNON=diethoxyphosphinothioylsulfanylmethylsulfanyl-diethoxy-sulfanylidene-lambda5-phosphane
INCHIKEY=RIZMRRKBZQXFOY-UHFFFAOYSA-N
INCHI=InChI=1S/C9H22O4P2S4/c1-5-10-14(16,11-6-2)18-9-19-15(17,12-7-3)13-8-4/h5-9H2,1-4H3
SMILES=CCOP(=S)(OCC)SCSP(=S)(OCC)OCC
INSTRUMENT_TYPE=LC-ESI-QFT
INSTRUMENT=Exploris 240 Orbitrap Thermo Scientific
COLLISION_ENERGY=75 % (nominal)
FORMULA=C9H22O4P2S4
PARENT=384.9949
SPLASH=splash10-0002-9600000000-ace677144ef6ddfb4cfd
NUM_PEAKS=10
COMPOUND_NAME=Ethion
SPECTRUM_ID=MSBNK-Eawag-EQ01136005
ADDUCT=[M+H]+
MS_LEVEL=MS2
PRECURSOR_MZ=384.9949
IONMODE=positive
NOMINAL_MASS=384
PARENT_MASS=383.9876
64.9788 19.0 
78.9404 15.0 
96.9508 999.0 
110.9661 46.0 
114.9614 342.0 
124.9817 14.0 
126.944 16.0 
128.9231 32.0 
128.9773 16.0 
142.9385 327.0 
END IONS

BEGIN IONS
SYNON=2-(dimethoxyphosphinothioylsulfanylmethyl)isoindole-1,3-dione
INCHIKEY=LMNZTLDVJIUSHT-UHFFFAOYSA-N
INCHI=InChI=1S/C11H12NO4PS2/c1-15-17(18,16-2)19-7-12-10(13)8-5-3-4-6-9(8)11(12)14/h3-6H,7H2,1-2H3
SMILES=COP(=S)(OC)SCN1C(=O)C2=CC=CC=C2C1=O
INSTRUMENT_TYPE=LC-ESI-QFT
INSTRUMENT=Q Exactive Orbitrap Thermo Scientific
COLLISION_ENERGY=45 (nominal)
FORMULA=C11H12NO4PS2
PARENT=318.0018
SPLASH=splash10-03di-0900000000-1a70229d4ed126c9b2d8
NUM_PEAKS=11
COMPOUND_NAME=Phosmet
SPECTRUM_ID=MSBNK-Eawag-EQ310103
ADDUCT=[M+H]+
MS_LEVEL=MS2
PRECURSOR_MZ=318.0018
IONMODE=positive
NOMINAL_MASS=317
PARENT_MASS=316.99454
69.0698 2.0 
77.0383 2.0 
95.0493 2.0 
104.0254 1.0 
105.0336 10.0 
130.029 7.0 
132.0447 1.0 
133.0285 65.0 
142.9927 1.0 
160.0393 999.0 
178.0497 7.0 
END IONS

BEGIN IONS
SYNON=ethyl 2-diethoxyphosphinothioyloxy-5-methylpyrazolo[1,5-a]pyrimidine-6-carboxylate
INCHIKEY=JOOMJVFZQRQWKR-UHFFFAOYSA-N
INCHI=InChI=1S/C14H20N3O5PS/c1-5-19-14(18)11-9-17-12(15-10(11)4)8-13(16-17)22-23(24,20-6-2)21-7-3/h8-9H,5-7H2,1-4H3
SMILES=CCOC(=O)C1=CN2C(=CC(=N2)OP(=S)(OCC)OCC)N=C1C
INSTRUMENT_TYPE=LC-ESI-QFT
INSTRUMENT=Exploris 240 Orbitrap Thermo Scientific
COLLISION_ENERGY=60 % (nominal)
FORMULA=C14H20N3O5PS
PARENT=374.0934
SPLASH=splash10-0006-0910000000-6d25f3e5f13c4b6be402
NUM_PEAKS=28
COMPOUND_NAME=Pyrazophos
SPECTRUM_ID=MSBNK-Eawag-EQ01139404
ADDUCT=[M+H]+
MS_LEVEL=MS2
PRECURSOR_MZ=374.0934
IONMODE=positive
NOMINAL_MASS=373
PARENT_MASS=373.0861
64.9787 36.0 
93.01 39.0 
96.9507 99.0 
113.9535 103.0 
114.9612 79.0 
124.982 5.0 
125.9898 5.0 
141.9848 9.0 
142.9927 11.0 
148.0506 33.0 
159.0424 9.0 
165.0116 7.0 
166.0609 23.0 
176.0454 299.0 
177.0301 17.0 
177.0532 125.0 
178.061 5.0 
180.0894 9.0 
181.0067 22.0 
183.0223 88.0 
192.0231 20.0 
194.056 999.0 
205.0847 50.0 
208.0181 24.0 
210.0328 60.0 
222.0872 195.0 
236.0493 7.0 
238.0646 24.0 
END IONS

BEGIN IONS
SYNON=2-(dimethoxyphosphinothioylthio)-N-methylacetamide
INCHIKEY=MCWXGJITAZMZEV-UHFFFAOYSA-N
INCHI=InChI=1S/C5H12NO3PS2/c1-6-5(7)4-12-10(11,8-2)9-3/h4H2,1-3H3,(H,6,7)
SMILES=P(SCC(NC)=O)(OC)(OC)=S
INSTRUMENT_TYPE=LC-ESI-ITFT
INSTRUMENT=LTQ Orbitrap XL Thermo Scientific
COLLISION_ENERGY=45 % (nominal)
FORMULA=C5H12NO3PS2
PARENT=230.0069
SPLASH=splash10-00dl-0900000000-f6c06fce6a9152c46a45
NUM_PEAKS=25
COMPOUND_NAME=Dimethoate
SPECTRUM_ID=MSBNK-Eawag-EA276104
ADDUCT=[M+H]+
MS_LEVEL=MS2
PRECURSOR_MZ=230.0069
IONMODE=positive
NOMINAL_MASS=229
PARENT_MASS=228.9996
58.9951 1.0 
61.0106 15.0 
62.0184 3.0 
76.0215 2.0 
78.9944 36.0 
86.006 3.0 
88.0216 182.0 
93.0099 13.0 
104.0165 8.0 
109.005 5.0 
110.9665 20.0 
119.9937 18.0 
123.9982 26.0 
124.9821 999.0 
127.0156 13.0 
128.977 11.0 
140.9591 5.0 
142.9926 819.0 
155.9702 21.0 
156.9541 144.0 
158.9692 1.0 
169.9881 1.0 
170.9698 477.0 
197.9809 17.0 
198.9647 76.0 
END IONS

BEGIN IONS
SYNON=2-(dimethoxyphosphinothioylthio)-N-methylacetamide
INCHIKEY=MCWXGJITAZMZEV-UHFFFAOYSA-N
INCHI=InChI=1S/C5H12NO3PS2/c1-6-5(7)4-12-10(11,8-2)9-3/h4H2,1-3H3,(H,6,7)
SMILES=P(SCC(NC)=O)(OC)(OC)=S
INSTRUMENT_TYPE=LC-ESI-ITFT
INSTRUMENT=LTQ Orbitrap XL Thermo Scientific
COLLISION_ENERGY=90 % (nominal)
FORMULA=C5H12NO3PS2
PARENT=230.0069
SPLASH=splash10-0096-4900000000-72a80042c21e87af5a10
NUM_PEAKS=27
COMPOUND_NAME=Dimethoate
SPECTRUM_ID=MSBNK-Eawag-EA276113
ADDUCT=[M+H]+
MS_LEVEL=MS2
PRECURSOR_MZ=230.0069
IONMODE=positive
NOMINAL_MASS=229
PARENT_MASS=228.9996
58.995 10.0 
59.9997 5.0 
61.0106 11.0 
62.0184 41.0 
62.9452 2.0 
62.9994 29.0 
72.0442 3.0 
76.0215 15.0 
78.0103 12.0 
78.9943 597.0 
88.0215 50.0 
92.0259 14.0 
93.0099 256.0 
94.9716 7.0 
97.005 6.0 
104.0163 4.0 
109.0047 5.0 
110.9663 48.0 
111.0206 12.0 
119.9935 4.0 
123.998 55.0 
124.982 999.0 
127.0154 29.0 
128.9769 77.0 
142.9925 903.0 
155.9701 7.0 
156.954 44.0 
END IONS

BEGIN IONS
SYNON=3-[(butan-2-ylthio)-ethoxyphosphoryl]-2-thiazolidinone
INCHIKEY=DUFVKSUJRWYZQP-UHFFFAOYSA-N
INCHI=InChI=1S/C9H18NO3PS2/c1-4-8(3)16-14(12,13-5-2)10-6-7-15-9(10)11/h8H,4-7H2,1-3H3
SMILES=O=P(SC(CC)C)(OCC)N1C(=O)SCC1
INSTRUMENT_TYPE=LC-ESI-QFT
INSTRUMENT=Q Exactive Orbitrap Thermo Scientific
COLLISION_ENERGY=30 (nominal)
FORMULA=C9H18NO3PS2
PARENT=284.0538
SPLASH=splash10-0udi-0910000000-95388dedbfff66f5fe39
NUM_PEAKS=16
COMPOUND_NAME=Fosthiazate
SPECTRUM_ID=MSBNK-Eawag-EQ305002
ADDUCT=[M+H]+
MS_LEVEL=MS2
PRECURSOR_MZ=284.0538
IONMODE=positive
NOMINAL_MASS=283
PARENT_MASS=283.04657
57.0698 3.0 
61.0106 4.0 
76.0215 2.0 
104.0164 999.0 
114.9611 5.0 
119.9935 11.0 
122.0266 1.0 
139.9564 5.0 
153.0133 1.0 
165.9719 1.0 
167.9877 8.0 
181.9488 1.0 
183.9826 2.0 
199.9596 180.0 
209.9804 3.0 
227.9909 235.0 
END IONS

BEGIN IONS
SYNON=3-(dimethoxyphosphinothioylsulfanylmethyl)-5-methoxy-1,3,4-thiadiazol-2-one
INCHIKEY=MEBQXILRKZHVCX-UHFFFAOYSA-N
INCHI=InChI=1S/C6H11N2O4PS3/c1-10-5-7-8(6(9)16-5)4-15-13(14,11-2)12-3/h4H2,1-3H3
SMILES=O=C1SC(=N/N1CSP(=S)(OC)OC)\OC
INSTRUMENT_TYPE=LC-ESI-QFT
INSTRUMENT=Q Exactive Orbitrap Thermo Scientific
COLLISION_ENERGY=45 (nominal)
FORMULA=C6H11N2O4PS3
PARENT=302.9691
SPLASH=splash10-0079-9100000000-9d4db717905ce5f942e8
NUM_PEAKS=7
COMPOUND_NAME=Methidathion
SPECTRUM_ID=MSBNK-Eawag-EQ309603
ADDUCT=[M+H]+
MS_LEVEL=MS2
PRECURSOR_MZ=302.9691
IONMODE=positive
NOMINAL_MASS=302
PARENT_MASS=301.96186
58.0288 325.0 
71.024 612.0 
85.0396 999.0 
103.0503 101.0 
117.066 1.0 
142.9928 3.0 
145.0067 131.0 
END IONS

BEGIN IONS
SYNON=diethoxy-(2-isopropyl-6-methyl-pyrimidin-4-yl)oxy-thioxo-phosphorane
INCHIKEY=FHIVAFMUCKRCQO-UHFFFAOYSA-N
INCHI=InChI=1S/C12H21N2O3PS/c1-6-15-18(19,16-7-2)17-11-8-10(5)13-12(14-11)9(3)4/h8-9H,6-7H2,1-5H3
SMILES=O(c1nc(nc(c1)C)C(C)C)P(OCC)(OCC)=S
INSTRUMENT_TYPE=LC-ESI-ITFT
INSTRUMENT=LTQ Orbitrap XL Thermo Scientific
COLLISION_ENERGY=60 % (nominal)
FORMULA=C12H21N2O3PS
PARENT=305.1083
SPLASH=splash10-0gb9-1900000000-cb95f2a89d6871b4c0f5
NUM_PEAKS=14
COMPOUND_NAME=Diazinon
SPECTRUM_ID=MSBNK-Eawag-EA029311
ADDUCT=[M+H]+
MS_LEVEL=MS2
PRECURSOR_MZ=305.1083
IONMODE=positive
NOMINAL_MASS=304
PARENT_MASS=304.1011
70.0652 19.0 
80.9736 4.0 
84.0445 83.0 
96.9509 255.0 
98.9842 18.0 
100.0216 124.0 
109.0049 35.0 
114.9614 203.0 
124.9821 8.0 
153.1024 513.0 
154.0562 8.0 
167.0634 4.0 
169.0796 999.0 
197.1094 4.0 
END IONS

BEGIN IONS
SYNON=ethoxy-ethyl-(phenylthio)-sulfanylidenephosphorane
INCHIKEY=KVGLBTYUCJYMND-UHFFFAOYSA-N
INCHI=InChI=1S/C10H15OPS2/c1-3-11-12(13,4-2)14-10-8-6-5-7-9-10/h5-9H,3-4H2,1-2H3
SMILES=S=P(Sc1ccccc1)(OCC)CC
INSTRUMENT_TYPE=LC-ESI-QFT
INSTRUMENT=Q Exactive Orbitrap Thermo Scientific
COLLISION_ENERGY=75 (nominal)
FORMULA=C10H15OPS2
PARENT=247.0375
SPLASH=splash10-057i-6900000000-1763febe2045eb714ba3
NUM_PEAKS=23
COMPOUND_NAME=Fonofos
SPECTRUM_ID=MSBNK-Eawag-EQ311205
ADDUCT=[M+H]+
MS_LEVEL=MS2
PRECURSOR_MZ=247.0375
IONMODE=positive
NOMINAL_MASS=246
PARENT_MASS=246.03019
62.9453 426.0 
64.9786 6.0 
77.0151 4.0 
77.0385 1.0 
78.0464 1.0 
80.9558 679.0 
90.9765 16.0 
94.9173 54.0 
95.0491 23.0 
105.0448 6.0 
108.9871 694.0 
110.0184 3.0 
111.0262 47.0 
126.9977 999.0 
137.0185 3.0 
138.9764 5.0 
140.9591 1.0 
141.0135 3.0 
156.9873 1.0 
170.9485 6.0 
172.9643 4.0 
174.998 3.0 
200.9961 4.0 
END IONS

BEGIN IONS
SYNON=diethoxy-sulfanylidene-(3,5,6-trichloropyridin-2-yl)oxy-{5}-phosphane
INCHIKEY=SBPBAQFWLVIOKP-UHFFFAOYSA-N
INCHI=InChI=1S/C9H11Cl3NO3PS/c1-3-14-17(18,15-4-2)16-9-7(11)5-6(10)8(12)13-9/h5H,3-4H2,1-2H3
SMILES=Clc1c(OP(=S)(OCC)OCC)nc(Cl)c(Cl)c1
INSTRUMENT_TYPE=LC-ESI-ITFT
INSTRUMENT=LTQ Orbitrap XL Thermo Scientific
COLLISION_ENERGY=75 % (nominal)
FORMULA=C9H11Cl3NO3PS
PARENT=349.9336
SPLASH=splash10-01ot-2900000000-9ce44e25c83ae56e97f0
NUM_PEAKS=33
COMPOUND_NAME=Chlorpyrifos
SPECTRUM_ID=MSBNK-Eawag-EA295012
ADDUCT=[M+H]+
MS_LEVEL=MS2
PRECURSOR_MZ=349.9336
IONMODE=positive
NOMINAL_MASS=349
PARENT_MASS=348.9263
64.9786 4.0 
78.9402 9.0 
96.9507 577.0 
98.984 5.0 
106.9449 216.0 
110.9663 2.0 
114.9613 999.0 
116.9659 1.0 
122.94 2.0 
124.982 2.0 
133.9558 192.0 
134.9399 2.0 
134.9635 2.0 
141.9511 2.0 
149.9511 3.0 
150.917 42.0 
161.9508 21.0 
176.9196 2.0 
177.9279 46.0 
178.9358 3.0 
179.917 37.0 
179.9613 209.0 
195.939 5.0 
196.9194 4.0 
197.9274 613.0 
211.8891 13.0 
212.8969 13.0 
213.9046 93.0 
229.8995 9.0 
275.8603 10.0 
293.8853 1.0 
321.9012 1.0 
325.9183 1.0 
END IONS

BEGIN IONS
SYNON=(1E)-N-(methylcarbamoyloxy)ethanimidothioic acid methyl ester
INCHIKEY=UHXUZOCRWCRNSJ-QPJJXVBHSA-N
INCHI=InChI=1S/C5H10N2O2S/c1-4(10-3)7-9-5(8)6-2/h1-3H3,(H,6,8)/b7-4+
SMILES=C/C(=N\OC(=O)NC)SC
INSTRUMENT_TYPE=LC-ESI-ITFT
INSTRUMENT=LTQ Orbitrap XL Thermo Scientific
COLLISION_ENERGY=35 % (nominal)
FORMULA=C5H10N2O2S
PARENT=163.0536
SPLASH=splash10-00y0-9800000000-e1b10436e09d20202a33
NUM_PEAKS=10
COMPOUND_NAME=Methomyl
SPECTRUM_ID=MSBNK-Eawag-EA294214
ADDUCT=[M+H]+
MS_LEVEL=MS2
PRECURSOR_MZ=163.0536
IONMODE=positive
NOMINAL_MASS=162
PARENT_MASS=162.0463
55.0542 3.0 
57.0698 3.0 
65.0055 644.0 
78.0372 2.0 
88.0215 708.0 
89.0596 165.0 
106.0321 172.0 
107.0702 211.0 
118.9789 8.0 
122.027 999.0 
END IONS

BEGIN IONS
SYNON=dimethoxy-sulfanylidene-(3,5,6-trichloropyridin-2-yl)oxy-{5}-phosphane
INCHIKEY=HRBKVYFZANMGRE-UHFFFAOYSA-N
INCHI=InChI=1S/C7H7Cl3NO3PS/c1-12-15(16,13-2)14-7-5(9)3-4(8)6(10)11-7/h3H,1-2H3
SMILES=Clc1c(OP(=S)(OC)OC)nc(Cl)c(Cl)c1
INSTRUMENT_TYPE=LC-ESI-ITFT
INSTRUMENT=LTQ Orbitrap XL Thermo Scientific
COLLISION_ENERGY=90 % (nominal)
FORMULA=C7H7Cl3NO3PS
PARENT=321.9023
SPLASH=splash10-004i-6900000000-bd956a928cc7d240171b
NUM_PEAKS=14
COMPOUND_NAME=Chlorpyrifos-methyl
SPECTRUM_ID=MSBNK-Eawag-EA295113
ADDUCT=[M+H]+
MS_LEVEL=MS2
PRECURSOR_MZ=321.9023
IONMODE=positive
NOMINAL_MASS=321
PARENT_MASS=320.8950
62.0185 36.0 
78.9943 999.0 
93.01 140.0 
97.0046 37.0 
106.9448 53.0 
124.982 470.0 
127.0154 178.0 
142.9926 511.0 
161.9503 64.0 
167.9169 114.0 
176.9201 218.0 
179.9166 33.0 
211.8894 75.0 
289.8804 48.0 
END IONS

BEGIN IONS
SYNON=(2,2-dimethyl-3H-1-benzofuran-7-yl) N-(dibutylamino)sulfanyl-N-methylcarbamate
INCHIKEY=JLQUFIHWVLZVTJ-UHFFFAOYSA-N
INCHI=InChI=1S/C20H32N2O3S/c1-6-8-13-22(14-9-7-2)26-21(5)19(23)24-17-12-10-11-16-15-20(3,4)25-18(16)17/h10-12H,6-9,13-15H2,1-5H3
SMILES=CCCCN(CCCC)SN(C)C(=O)OC1=CC=CC2=C1OC(C2)(C)C
INSTRUMENT_TYPE=LC-ESI-QFT
INSTRUMENT=Exploris 240 Orbitrap Thermo Scientific
COLLISION_ENERGY=120 % (nominal)
FORMULA=C20H32N2O3S
PARENT=381.2206
SPLASH=splash10-06vi-9000000000-49e85327421a11d91076
NUM_PEAKS=7
COMPOUND_NAME=Carbosulfan
SPECTRUM_ID=MSBNK-Eawag-EQ01121407
ADDUCT=[M+H]+
MS_LEVEL=MS2
PRECURSOR_MZ=381.2206
IONMODE=positive
NOMINAL_MASS=380
PARENT_MASS=380.2134
55.0544 91.0 
57.0698 611.0 
62.0059 840.0 
76.0215 999.0 
91.0544 118.0 
97.0106 103.0 
123.044 138.0 
END IONS

BEGIN IONS
SYNON=2-(dimethoxyphosphinothioylthio)-N-methylacetamide
INCHIKEY=MCWXGJITAZMZEV-UHFFFAOYSA-N
INCHI=InChI=1S/C5H12NO3PS2/c1-6-5(7)4-12-10(11,8-2)9-3/h4H2,1-3H3,(H,6,7)
SMILES=P(SCC(NC)=O)(OC)(OC)=S
INSTRUMENT_TYPE=LC-ESI-ITFT
INSTRUMENT=LTQ Orbitrap XL Thermo Scientific
COLLISION_ENERGY=30 % (nominal)
FORMULA=C5H12NO3PS2
PARENT=230.0069
SPLASH=splash10-00di-0900000000-a294b88960e7fdc930ef
NUM_PEAKS=22
COMPOUND_NAME=Dimethoate
SPECTRUM_ID=MSBNK-Eawag-EA276109
ADDUCT=[M+H]+
MS_LEVEL=MS2
PRECURSOR_MZ=230.0069
IONMODE=positive
NOMINAL_MASS=229
PARENT_MASS=228.9996
61.0106 15.0 
78.9943 10.0 
88.0216 288.0 
93.01 4.0 
104.0165 4.0 
109.0051 2.0 
110.9663 5.0 
119.9936 14.0 
123.9981 6.0 
124.9821 664.0 
127.0155 3.0 
128.9771 2.0 
140.9593 4.0 
142.9926 436.0 
155.9702 6.0 
156.9541 65.0 
158.9699 8.0 
169.9855 1.0 
170.9698 999.0 
197.9808 81.0 
198.9647 795.0 
230.0065 16.0 
END IONS

BEGIN IONS
SYNON=dimethoxy-sulfanylidene-(3,5,6-trichloropyridin-2-yl)oxy-{5}-phosphane
INCHIKEY=HRBKVYFZANMGRE-UHFFFAOYSA-N
INCHI=InChI=1S/C7H7Cl3NO3PS/c1-12-15(16,13-2)14-7-5(9)3-4(8)6(10)11-7/h3H,1-2H3
SMILES=Clc1c(OP(=S)(OC)OC)nc(Cl)c(Cl)c1
INSTRUMENT_TYPE=LC-ESI-ITFT
INSTRUMENT=LTQ Orbitrap XL Thermo Scientific
COLLISION_ENERGY=15 % (nominal)
FORMULA=C7H7Cl3NO3PS
PARENT=321.9023
SPLASH=splash10-00di-0109000000-7f06923d91950b950401
NUM_PEAKS=6
COMPOUND_NAME=Chlorpyrifos-methyl
SPECTRUM_ID=MSBNK-Eawag-EA295108
ADDUCT=[M+H]+
MS_LEVEL=MS2
PRECURSOR_MZ=321.9023
IONMODE=positive
NOMINAL_MASS=321
PARENT_MASS=320.8950
78.9942 2.0 
124.982 100.0 
127.0155 3.0 
142.9926 70.0 
289.8759 86.0 
321.9022 999.0 
END IONS

BEGIN IONS
SYNON=diethoxy-sulfanylidene-(3,5,6-trichloropyridin-2-yl)oxy-{5}-phosphane
INCHIKEY=SBPBAQFWLVIOKP-UHFFFAOYSA-N
INCHI=InChI=1S/C9H11Cl3NO3PS/c1-3-14-17(18,15-4-2)16-9-7(11)5-6(10)8(12)13-9/h5H,3-4H2,1-2H3
SMILES=Clc1c(OP(=S)(OCC)OCC)nc(Cl)c(Cl)c1
INSTRUMENT_TYPE=LC-ESI-ITFT
INSTRUMENT=LTQ Orbitrap XL Thermo Scientific
COLLISION_ENERGY=90 % (nominal)
FORMULA=C9H11Cl3NO3PS
PARENT=349.9336
SPLASH=splash10-08fs-2900000000-b3d73af1ad2b48fb311b
NUM_PEAKS=23
COMPOUND_NAME=Chlorpyrifos
SPECTRUM_ID=MSBNK-Eawag-EA295013
ADDUCT=[M+H]+
MS_LEVEL=MS2
PRECURSOR_MZ=349.9336
IONMODE=positive
NOMINAL_MASS=349
PARENT_MASS=348.9263
64.9786 27.0 
78.9401 29.0 
96.9507 602.0 
106.9449 571.0 
110.9664 3.0 
114.9613 999.0 
118.9449 12.0 
133.9558 259.0 
134.9634 4.0 
143.94 9.0 
150.917 78.0 
161.9508 48.0 
176.92 8.0 
177.9279 44.0 
178.9353 5.0 
179.9169 112.0 
179.9613 133.0 
195.9387 2.0 
197.9274 301.0 
211.8885 9.0 
212.8967 8.0 
213.9046 31.0 
293.8488 8.0 
END IONS

BEGIN IONS
SYNON=N-[ethoxy-(3-methyl-4-methylsulfanylphenoxy)phosphoryl]propan-2-amine
INCHIKEY=ZCJPOPBZHLUFHF-UHFFFAOYSA-N
INCHI=InChI=1S/C13H22NO3PS/c1-6-16-18(15,14-10(2)3)17-12-7-8-13(19-5)11(4)9-12/h7-10H,6H2,1-5H3,(H,14,15)
SMILES=CCOP(=O)(NC(C)C)OC1=CC(=C(C=C1)SC)C
INSTRUMENT_TYPE=LC-ESI-QFT
INSTRUMENT=Exploris 240 Orbitrap Thermo Scientific
COLLISION_ENERGY=60 % (nominal)
FORMULA=C13H22NO3PS
PARENT=304.1131
SPLASH=splash10-014i-0290000000-0c2a2c8d26670b6d5cc8
NUM_PEAKS=24
COMPOUND_NAME=Fenamiphos
SPECTRUM_ID=MSBNK-Eawag-EQ01124704
ADDUCT=[M+H]+
MS_LEVEL=MS2
PRECURSOR_MZ=304.1131
IONMODE=positive
NOMINAL_MASS=303
PARENT_MASS=303.1058
58.9949 11.0 
60.0808 35.0 
79.0541 8.0 
79.9892 4.0 
91.0539 5.0 
93.0697 8.0 
97.0103 20.0 
98.0001 5.0 
103.0544 9.0 
104.0617 4.0 
107.049 54.0 
108.0568 16.0 
109.0647 5.0 
137.0418 41.0 
139.0208 11.0 
153.0369 73.0 
155.0522 49.0 
168.9875 35.0 
184.982 20.0 
198.9979 35.0 
201.9847 434.0 
202.9927 18.0 
217.0082 999.0 
230.0153 8.0 
END IONS

BEGIN IONS
SYNON=(3,5-dimethyl-4-methylsulfanyl-phenyl) N-methylcarbamate
INCHIKEY=YFBPRJGDJKVWAH-UHFFFAOYSA-N
INCHI=InChI=1S/C11H15NO2S/c1-7-5-9(14-11(13)12-3)6-8(2)10(7)15-4/h5-6H,1-4H3,(H,12,13)
SMILES=O=C(Oc1cc(c(SC)c(c1)C)C)NC
INSTRUMENT_TYPE=LC-ESI-ITFT
INSTRUMENT=LTQ Orbitrap XL Thermo Scientific
COLLISION_ENERGY=45 % (nominal)
FORMULA=C11H15NO2S
PARENT=226.0896
SPLASH=splash10-00di-0900000000-b11c5fcda6fea8c8c396
NUM_PEAKS=13
COMPOUND_NAME=Methiocarb
SPECTRUM_ID=MSBNK-Eawag-EA293710
ADDUCT=[M+H]+
MS_LEVEL=MS2
PRECURSOR_MZ=226.0896
IONMODE=positive
NOMINAL_MASS=225
PARENT_MASS=225.0823
77.0386 10.0 
91.0543 32.0 
93.07 93.0 
95.0856 1.0 
105.0448 3.0 
107.0494 5.0 
121.0649 999.0 
122.0727 252.0 
123.0804 12.0 
141.0733 4.0 
153.0369 11.0 
154.0447 10.0 
169.0683 341.0 
END IONS

BEGIN IONS
SYNON=2-(dimethoxyphosphinothioylthio)-N-methylacetamide
INCHIKEY=MCWXGJITAZMZEV-UHFFFAOYSA-N
INCHI=InChI=1S/C5H12NO3PS2/c1-6-5(7)4-12-10(11,8-2)9-3/h4H2,1-3H3,(H,6,7)
SMILES=P(SCC(NC)=O)(OC)(OC)=S
INSTRUMENT_TYPE=LC-ESI-ITFT
INSTRUMENT=LTQ Orbitrap XL Thermo Scientific
COLLISION_ENERGY=60 % (nominal)
FORMULA=C5H12NO3PS2
PARENT=230.0069
SPLASH=splash10-00dl-1900000000-37a6939e0cd813db9187
NUM_PEAKS=23
COMPOUND_NAME=Dimethoate
SPECTRUM_ID=MSBNK-Eawag-EA276105
ADDUCT=[M+H]+
MS_LEVEL=MS2
PRECURSOR_MZ=230.0069
IONMODE=positive
NOMINAL_MASS=229
PARENT_MASS=228.9996
61.0106 12.0 
62.0184 8.0 
62.9995 2.0 
76.0216 5.0 
78.9944 110.0 
88.0216 101.0 
92.0263 2.0 
93.01 47.0 
104.0162 9.0 
109.005 5.0 
110.9665 29.0 
119.9938 9.0 
123.998 40.0 
124.982 999.0 
127.0155 16.0 
128.977 29.0 
140.9597 2.0 
142.9926 849.0 
144.9968 1.0 
155.97 19.0 
156.9541 131.0 
170.9699 76.0 
198.965 5.0 
END IONS

BEGIN IONS
SYNON=2,2-bis(chloranyl)ethenyl dimethyl phosphate
INCHIKEY=OEBRKCOSUFCWJD-UHFFFAOYSA-N
INCHI=InChI=1S/C4H7Cl2O4P/c1-8-11(7,9-2)10-3-4(5)6/h3H,1-2H3
SMILES=O=P(O\C=C(/Cl)Cl)(OC)OC
INSTRUMENT_TYPE=LC-ESI-QFT
INSTRUMENT=Q Exactive Orbitrap Thermo Scientific
COLLISION_ENERGY=60 (nominal)
FORMULA=C4H7Cl2O4P
PARENT=220.9532
SPLASH=splash10-004i-2900000000-051c8cc88647cdf4959e
NUM_PEAKS=16
COMPOUND_NAME=Dichlorvos
SPECTRUM_ID=MSBNK-Eawag-EQ304704
ADDUCT=[M+H]+
MS_LEVEL=MS2
PRECURSOR_MZ=220.9532
IONMODE=positive
NOMINAL_MASS=220
PARENT_MASS=219.94590
59.9763 3.0 
62.9997 1.0 
64.9787 2.0 
76.9788 5.0 
78.9943 194.0 
94.945 8.0 
96.9604 29.0 
97.0049 11.0 
98.9841 2.0 
109.0049 15.0 
111.9476 2.0 
112.9998 31.0 
127.0155 999.0 
130.9656 3.0 
144.9815 11.0 
220.9531 2.0 
END IONS

BEGIN IONS
SYNON=N-methylcarbamic acid 1-naphthalenyl ester
INCHIKEY=CVXBEEMKQHEXEN-UHFFFAOYSA-N
INCHI=InChI=1S/C12H11NO2/c1-13-12(14)15-11-8-4-6-9-5-2-3-7-10(9)11/h2-8H,1H3,(H,13,14)
SMILES=c12c(OC(NC)=O)cccc1cccc2
INSTRUMENT_TYPE=LC-ESI-QFT
INSTRUMENT=Q Exactive Orbitrap Thermo Scientific
COLLISION_ENERGY=45 (nominal)
FORMULA=C12H11NO2
PARENT=202.0863
SPLASH=splash10-0002-0900000000-dbdca219f54681d7aa76
NUM_PEAKS=9
COMPOUND_NAME=Carbaryl
SPECTRUM_ID=MSBNK-Eawag-EQ303803
ADDUCT=[M+H]+
MS_LEVEL=MS2
PRECURSOR_MZ=202.0863
IONMODE=positive
NOMINAL_MASS=201
PARENT_MASS=201.07898
58.0287 6.0 
91.0539 2.0 
103.0541 3.0 
115.0539 6.0 
117.0697 124.0 
127.0539 4.0 
144.0565 1.0 
145.0647 999.0 
155.0601 58.0 
END IONS

BEGIN IONS
SYNON=[(Z)-2-chloranyl-1-(2,4-dichlorophenyl)ethenyl] diethyl phosphate
INCHIKEY=FSAVDKDHPDSCTO-WQLSENKSSA-N
INCHI=InChI=1S/C12H14Cl3O4P/c1-3-17-20(16,18-4-2)19-12(8-13)10-6-5-9(14)7-11(10)15/h5-8H,3-4H2,1-2H3/b12-8-
SMILES=CCOP(=O)(OCC)O/C(=C\Cl)/C1=C(C=C(C=C1)Cl)Cl
INSTRUMENT_TYPE=LC-ESI-QFT
INSTRUMENT=Q Exactive Orbitrap Thermo Scientific
COLLISION_ENERGY=30 (nominal)
FORMULA=C12H14Cl3O4P
PARENT=358.9768
SPLASH=splash10-0kdj-4940000000-e6da41dd8313f720f0ca
NUM_PEAKS=9
COMPOUND_NAME=Chlorfenvinphos
SPECTRUM_ID=MSBNK-Eawag-EQ304102
ADDUCT=[M+H]+
MS_LEVEL=MS2
PRECURSOR_MZ=358.9768
IONMODE=positive
NOMINAL_MASS=358
PARENT_MASS=357.96953
81.9813 1.0 
98.9844 927.0 
109.0051 10.0 
116.9949 17.0 
127.0157 999.0 
145.0264 12.0 
155.047 595.0 
169.9686 107.0 
204.9377 919.0 
END IONS

BEGIN IONS
SYNON=2-[butan-2-ylsulfanyl(ethoxy)phosphoryl]sulfanylbutane
INCHIKEY=KXRPCFINVWWFHQ-UHFFFAOYSA-N
INCHI=InChI=1S/C10H23O2PS2/c1-6-9(4)14-13(11,12-8-3)15-10(5)7-2/h9-10H,6-8H2,1-5H3
SMILES=CCC(C)SP(=O)(OCC)SC(C)CC
INSTRUMENT_TYPE=LC-ESI-QFT
INSTRUMENT=Exploris 240 Orbitrap Thermo Scientific
COLLISION_ENERGY=120 % (nominal)
FORMULA=C10H23O2PS2
PARENT=271.095
SPLASH=splash10-0002-9000000000-cf509a14157ccbbe86c9
NUM_PEAKS=8
COMPOUND_NAME=Cadusafos
SPECTRUM_ID=MSBNK-Eawag-EQ01121207
ADDUCT=[M+H]+
MS_LEVEL=MS2
PRECURSOR_MZ=271.095
IONMODE=positive
NOMINAL_MASS=270
PARENT_MASS=270.0877
57.0698 18.0 
64.9787 164.0 
78.9402 163.0 
94.9173 132.0 
96.9507 999.0 
110.9664 39.0 
112.9279 54.0 
130.9383 11.0 
END IONS

BEGIN IONS
SYNON=methyl N-[methyl-[methyl-(1-methylsulfanylethylideneamino)oxycarbonylamino]sulfanylcarbamoyl]oxyethanimidothioate
INCHIKEY=XDOTVMNBCQVZKG-UHFFFAOYSA-N
INCHI=InChI=1S/C10H18N4O4S3/c1-7(19-5)11-17-9(15)13(3)21-14(4)10(16)18-12-8(2)20-6/h1-6H3
SMILES=CC(=NOC(=O)N(C)SN(C)C(=O)ON=C(C)SC)SC
INSTRUMENT_TYPE=LC-ESI-QFT
INSTRUMENT=Exploris 240 Orbitrap Thermo Scientific
COLLISION_ENERGY=150 % (nominal)
FORMULA=C10H18N4O4S3
PARENT=355.0563
SPLASH=splash10-00di-9000000000-09211c2613ad2deb539b
NUM_PEAKS=10
COMPOUND_NAME=Thiodicarb
SPECTRUM_ID=MSBNK-Eawag-EQ01131408
ADDUCT=[M+H]+
MS_LEVEL=MS2
PRECURSOR_MZ=355.0563
IONMODE=positive
NOMINAL_MASS=354
PARENT_MASS=354.0490
56.0495 134.0 
59.9902 177.0 
60.998 315.0 
61.0107 50.0 
62.0058 143.0 
63.9435 136.0 
71.9902 448.0 
72.998 999.0 
78.9671 72.0 
88.0215 139.0 
END IONS

BEGIN IONS
SYNON=[amino(methylsulfanyl)phosphoryl]oxymethane
INCHIKEY=NNKVPIKMPCQWCG-UHFFFAOYSA-N
INCHI=InChI=1S/C2H8NO2PS/c1-5-6(3,4)7-2/h1-2H3,(H2,3,4)
SMILES=COP(=O)(N)SC
INSTRUMENT_TYPE=LC-ESI-QFT
INSTRUMENT=Exploris 240 Orbitrap Thermo Scientific
COLLISION_ENERGY=45 % (nominal)
FORMULA=C2H8NO2PS
PARENT=142.0086
SPLASH=splash10-0006-8900000000-3584cb7d8d1ad053b2da
NUM_PEAKS=7
COMPOUND_NAME=Methamidophos
SPECTRUM_ID=MSBNK-Eawag-EQ01128003
ADDUCT=[M+H]+
MS_LEVEL=MS2
PRECURSOR_MZ=142.0086
IONMODE=positive
NOMINAL_MASS=141
PARENT_MASS=141.0013
46.9949 6.0 
62.0186 5.0 
78.9943 18.0 
94.0052 999.0 
109.9824 100.0 
124.982 641.0 
142.0086 393.0 
END IONS

BEGIN IONS
SYNON=2-(dimethoxyphosphinothioylthio)-N-methylacetamide
INCHIKEY=MCWXGJITAZMZEV-UHFFFAOYSA-N
INCHI=InChI=1S/C5H12NO3PS2/c1-6-5(7)4-12-10(11,8-2)9-3/h4H2,1-3H3,(H,6,7)
SMILES=P(SCC(NC)=O)(OC)(OC)=S
INSTRUMENT_TYPE=LC-ESI-ITFT
INSTRUMENT=LTQ Orbitrap XL Thermo Scientific
COLLISION_ENERGY=60 % (nominal)
FORMULA=C5H12NO3PS2
PARENT=230.0069
SPLASH=splash10-00dl-1900000000-fa1a66428b8da9e5b786
NUM_PEAKS=28
COMPOUND_NAME=Dimethoate
SPECTRUM_ID=MSBNK-Eawag-EA276111
ADDUCT=[M+H]+
MS_LEVEL=MS2
PRECURSOR_MZ=230.0069
IONMODE=positive
NOMINAL_MASS=229
PARENT_MASS=228.9996
58.9949 1.0 
61.0106 9.0 
62.0185 6.0 
62.9995 1.0 
72.0442 1.0 
76.0216 3.0 
78.9943 100.0 
86.0058 1.0 
88.0215 86.0 
92.026 1.0 
93.01 40.0 
94.9719 1.0 
104.0165 9.0 
109.005 7.0 
110.9664 25.0 
119.9937 10.0 
123.9981 33.0 
124.9821 999.0 
127.0154 16.0 
128.977 26.0 
140.9593 2.0 
142.9926 832.0 
144.997 1.0 
155.9701 16.0 
156.9541 126.0 
170.9698 77.0 
197.9802 1.0 
230.0063 1.0 
END IONS

BEGIN IONS
SYNON=ethyl 2-diethoxyphosphinothioyloxy-5-methylpyrazolo[1,5-a]pyrimidine-6-carboxylate
INCHIKEY=JOOMJVFZQRQWKR-UHFFFAOYSA-N
INCHI=InChI=1S/C14H20N3O5PS/c1-5-19-14(18)11-9-17-12(15-10(11)4)8-13(16-17)22-23(24,20-6-2)21-7-3/h8-9H,5-7H2,1-4H3
SMILES=CCOC(=O)C1=CN2C(=CC(=N2)OP(=S)(OCC)OCC)N=C1C
INSTRUMENT_TYPE=LC-ESI-QFT
INSTRUMENT=Exploris 240 Orbitrap Thermo Scientific
COLLISION_ENERGY=90 % (nominal)
FORMULA=C14H20N3O5PS
PARENT=374.0934
SPLASH=splash10-002e-3900000000-3346adc8f77942fcfce5
NUM_PEAKS=41
COMPOUND_NAME=Pyrazophos
SPECTRUM_ID=MSBNK-Eawag-EQ01139406
ADDUCT=[M+H]+
MS_LEVEL=MS2
PRECURSOR_MZ=374.0934
IONMODE=positive
NOMINAL_MASS=373
PARENT_MASS=373.0861
54.0339 32.0 
64.9787 190.0 
66.0338 63.0 
68.0132 56.0 
68.0494 16.0 
78.0338 22.0 
78.9401 35.0 
80.0133 32.0 
80.9736 52.0 
82.0287 35.0 
92.0498 43.0 
93.0101 19.0 
93.0447 169.0 
94.0287 145.0 
95.0602 47.0 
96.9508 564.0 
98.9841 47.0 
105.0447 32.0 
106.0293 12.0 
109.04 17.0 
110.9667 24.0 
111.0554 18.0 
113.9535 131.0 
114.9612 340.0 
120.0554 206.0 
121.0396 119.0 
131.024 24.0 
133.0635 14.0 
134.0472 13.0 
139.0502 161.0 
148.0506 781.0 
152.0583 15.0 
159.0429 128.0 
165.0116 79.0 
166.0612 203.0 
176.0455 999.0 
177.0301 93.0 
177.0535 260.0 
178.0602 12.0 
183.0224 160.0 
194.0561 530.0 
END IONS

BEGIN IONS
SYNON=2-[butan-2-ylsulfanyl(ethoxy)phosphoryl]sulfanylbutane
INCHIKEY=KXRPCFINVWWFHQ-UHFFFAOYSA-N
INCHI=InChI=1S/C10H23O2PS2/c1-6-9(4)14-13(11,12-8-3)15-10(5)7-2/h9-10H,6-8H2,1-5H3
SMILES=CCC(C)SP(=O)(OCC)SC(C)CC
INSTRUMENT_TYPE=LC-ESI-QFT
INSTRUMENT=Exploris 240 Orbitrap Thermo Scientific
COLLISION_ENERGY=75 % (nominal)
FORMULA=C10H23O2PS2
PARENT=271.095
SPLASH=splash10-000t-9600000000-f055514e743e891e1864
NUM_PEAKS=6
COMPOUND_NAME=Cadusafos
SPECTRUM_ID=MSBNK-Eawag-EQ01121205
ADDUCT=[M+H]+
MS_LEVEL=MS2
PRECURSOR_MZ=271.095
IONMODE=positive
NOMINAL_MASS=270
PARENT_MASS=270.0877
57.0699 57.0 
96.9508 999.0 
110.9664 45.0 
112.9279 68.0 
130.9385 596.0 
158.969 7.0 
END IONS

BEGIN IONS
SYNON=N,N-dimethylcarbamic acid [2-(dimethylamino)-5,6-dimethyl-4-pyrimidinyl] ester
INCHIKEY=YFGYUFNIOHWBOB-UHFFFAOYSA-N
INCHI=InChI=1S/C11H18N4O2/c1-7-8(2)12-10(14(3)4)13-9(7)17-11(16)15(5)6/h1-6H3
SMILES=n(c(c(C)c1OC(=O)N(C)C)C)c(n1)N(C)C
INSTRUMENT_TYPE=LC-ESI-ITFT
INSTRUMENT=LTQ Orbitrap XL Thermo Scientific
COLLISION_ENERGY=90 % (nominal)
FORMULA=C11H18N4O2
PARENT=239.1503
SPLASH=splash10-00di-9100000000-a0f967f09386f580a0a2
NUM_PEAKS=17
COMPOUND_NAME=Pirimicarb
SPECTRUM_ID=MSBNK-Eawag-EA271107
ADDUCT=[M+H]+
MS_LEVEL=MS2
PRECURSOR_MZ=239.1503
IONMODE=positive
NOMINAL_MASS=238
PARENT_MASS=238.1430
56.0132 6.0 
58.0653 2.0 
69.0574 6.0 
71.0602 5.0 
72.0445 999.0 
83.024 31.0 
85.076 99.0 
109.0761 104.0 
123.055 2.0 
124.0632 11.0 
137.071 21.0 
138.0787 42.0 
150.1025 7.0 
152.0819 38.0 
156.0525 3.0 
167.1045 3.0 
182.1285 12.0 
END IONS

BEGIN IONS
SYNON=[amino(methylsulfanyl)phosphoryl]oxymethane
INCHIKEY=NNKVPIKMPCQWCG-UHFFFAOYSA-N
INCHI=InChI=1S/C2H8NO2PS/c1-5-6(3,4)7-2/h1-2H3,(H2,3,4)
SMILES=COP(=O)(N)SC
INSTRUMENT_TYPE=LC-ESI-QFT
INSTRUMENT=Exploris 240 Orbitrap Thermo Scientific
COLLISION_ENERGY=15 % (nominal)
FORMULA=C2H8NO2PS
PARENT=142.0086
SPLASH=splash10-0006-0900000000-456ada2dbd29966d025d
NUM_PEAKS=4
COMPOUND_NAME=Methamidophos
SPECTRUM_ID=MSBNK-Eawag-EQ01128001
ADDUCT=[M+H]+
MS_LEVEL=MS2
PRECURSOR_MZ=142.0086
IONMODE=positive
NOMINAL_MASS=141
PARENT_MASS=141.0013
94.0052 66.0 
109.9825 4.0 
124.982 41.0 
142.0085 999.0 
END IONS

BEGIN IONS
SYNON=diethoxyphosphinothioylsulfanylmethylsulfanyl-diethoxy-sulfanylidene-lambda5-phosphane
INCHIKEY=RIZMRRKBZQXFOY-UHFFFAOYSA-N
INCHI=InChI=1S/C9H22O4P2S4/c1-5-10-14(16,11-6-2)18-9-19-15(17,12-7-3)13-8-4/h5-9H2,1-4H3
SMILES=CCOP(=S)(OCC)SCSP(=S)(OCC)OCC
INSTRUMENT_TYPE=LC-ESI-QFT
INSTRUMENT=Exploris 240 Orbitrap Thermo Scientific
COLLISION_ENERGY=15 % (nominal)
FORMULA=C9H22O4P2S4
PARENT=384.9949
SPLASH=splash10-0002-0900000000-77573fd25976e9585658
NUM_PEAKS=9
COMPOUND_NAME=Ethion
SPECTRUM_ID=MSBNK-Eawag-EQ01136001
ADDUCT=[M+H]+
MS_LEVEL=MS2
PRECURSOR_MZ=384.9949
IONMODE=positive
NOMINAL_MASS=384
PARENT_MASS=383.9876
75.0264 11.0 
124.9822 11.0 
142.9385 37.0 
153.0134 67.0 
154.9749 17.0 
170.9698 255.0 
199.0011 999.0 
215.0324 74.0 
230.9733 57.0 
END IONS

BEGIN IONS
SYNON=2-(dimethoxyphosphinothioylsulfanylmethyl)isoindole-1,3-dione
INCHIKEY=LMNZTLDVJIUSHT-UHFFFAOYSA-N
INCHI=InChI=1S/C11H12NO4PS2/c1-15-17(18,16-2)19-7-12-10(13)8-5-3-4-6-9(8)11(12)14/h3-6H,7H2,1-2H3
SMILES=COP(=S)(OC)SCN1C(=O)C2=CC=CC=C2C1=O
INSTRUMENT_TYPE=LC-ESI-QFT
INSTRUMENT=Q Exactive Orbitrap Thermo Scientific
COLLISION_ENERGY=60 (nominal)
FORMULA=C11H12NO4PS2
PARENT=318.0018
SPLASH=splash10-03di-0900000000-3a5634a2d3df7c5b6729
NUM_PEAKS=15
COMPOUND_NAME=Phosmet
SPECTRUM_ID=MSBNK-Eawag-EQ310104
ADDUCT=[M+H]+
MS_LEVEL=MS2
PRECURSOR_MZ=318.0018
IONMODE=positive
NOMINAL_MASS=317
PARENT_MASS=316.99454
53.0386 1.0 
67.0541 1.0 
76.0306 1.0 
77.0386 4.0 
95.0491 20.0 
104.0495 7.0 
105.0336 40.0 
105.0447 2.0 
130.0289 22.0 
130.0402 1.0 
132.0445 10.0 
133.0284 194.0 
142.9925 5.0 
160.0393 999.0 
178.0496 8.0 
END IONS

BEGIN IONS
SYNON=2-[butan-2-ylsulfanyl(ethoxy)phosphoryl]sulfanylbutane
INCHIKEY=KXRPCFINVWWFHQ-UHFFFAOYSA-N
INCHI=InChI=1S/C10H23O2PS2/c1-6-9(4)14-13(11,12-8-3)15-10(5)7-2/h9-10H,6-8H2,1-5H3
SMILES=CCC(C)SP(=O)(OCC)SC(C)CC
INSTRUMENT_TYPE=LC-ESI-QFT
INSTRUMENT=Exploris 240 Orbitrap Thermo Scientific
COLLISION_ENERGY=90 % (nominal)
FORMULA=C10H23O2PS2
PARENT=271.095
SPLASH=splash10-0002-9200000000-1a08fb99fb0722eed759
NUM_PEAKS=8
COMPOUND_NAME=Cadusafos
SPECTRUM_ID=MSBNK-Eawag-EQ01121206
ADDUCT=[M+H]+
MS_LEVEL=MS2
PRECURSOR_MZ=271.095
IONMODE=positive
NOMINAL_MASS=270
PARENT_MASS=270.0877
57.0699 33.0 
64.9788 12.0 
78.9403 16.0 
94.9172 20.0 
96.9507 999.0 
110.9663 40.0 
112.928 68.0 
130.9385 144.0 
END IONS

BEGIN IONS
SYNON=diethoxy-(2-isopropyl-6-methyl-pyrimidin-4-yl)oxy-thioxo-phosphorane
INCHIKEY=FHIVAFMUCKRCQO-UHFFFAOYSA-N
INCHI=InChI=1S/C12H21N2O3PS/c1-6-15-18(19,16-7-2)17-11-8-10(5)13-12(14-11)9(3)4/h8-9H,6-7H2,1-5H3
SMILES=O(c1nc(nc(c1)C)C(C)C)P(OCC)(OCC)=S
INSTRUMENT_TYPE=LC-ESI-ITFT
INSTRUMENT=LTQ Orbitrap XL Thermo Scientific
COLLISION_ENERGY=75 % (nominal)
FORMULA=C12H21N2O3PS
PARENT=305.1083
SPLASH=splash10-0uxs-3900000000-8d43918e6bdf5a791827
NUM_PEAKS=17
COMPOUND_NAME=Diazinon
SPECTRUM_ID=MSBNK-Eawag-EA029312
ADDUCT=[M+H]+
MS_LEVEL=MS2
PRECURSOR_MZ=305.1083
IONMODE=positive
NOMINAL_MASS=304
PARENT_MASS=304.1011
58.995 10.0 
64.9786 7.0 
67.0417 12.0 
70.0652 96.0 
78.94 5.0 
80.9737 26.0 
84.0444 334.0 
90.9943 10.0 
96.9508 558.0 
98.9842 63.0 
100.0216 639.0 
109.0049 73.0 
114.9614 440.0 
153.1022 462.0 
154.0558 33.0 
167.0635 7.0 
169.0795 999.0 
END IONS

BEGIN IONS
SYNON=2-[butan-2-ylsulfanyl(ethoxy)phosphoryl]sulfanylbutane
INCHIKEY=KXRPCFINVWWFHQ-UHFFFAOYSA-N
INCHI=InChI=1S/C10H23O2PS2/c1-6-9(4)14-13(11,12-8-3)15-10(5)7-2/h9-10H,6-8H2,1-5H3
SMILES=CCC(C)SP(=O)(OCC)SC(C)CC
INSTRUMENT_TYPE=LC-ESI-QFT
INSTRUMENT=Exploris 240 Orbitrap Thermo Scientific
COLLISION_ENERGY=30 % (nominal)
FORMULA=C10H23O2PS2
PARENT=271.095
SPLASH=splash10-0a4i-0900000000-f657460b64d1239ef267
NUM_PEAKS=5
COMPOUND_NAME=Cadusafos
SPECTRUM_ID=MSBNK-Eawag-EQ01121202
ADDUCT=[M+H]+
MS_LEVEL=MS2
PRECURSOR_MZ=271.095
IONMODE=positive
NOMINAL_MASS=270
PARENT_MASS=270.0877
57.0697 17.0 
96.9511 5.0 
130.9384 192.0 
158.9697 999.0 
215.0324 69.0 
END IONS

BEGIN IONS
SYNON=ethyl 2-dimethoxyphosphinothioylsulfanyl-2-phenylacetate
INCHIKEY=XAMUDJHXFNRLCY-UHFFFAOYSA-N
INCHI=InChI=1S/C12H17O4PS2/c1-4-16-12(13)11(10-8-6-5-7-9-10)19-17(18,14-2)15-3/h5-9,11H,4H2,1-3H3
SMILES=CCOC(=O)C(C1=CC=CC=C1)SP(=S)(OC)OC
INSTRUMENT_TYPE=LC-ESI-QFT
INSTRUMENT=Exploris 240 Orbitrap Thermo Scientific
COLLISION_ENERGY=15 % (nominal)
FORMULA=C12H17O4PS2
PARENT=321.0379
SPLASH=splash10-01ot-0890000000-0242bf6272f1bc6ec98f
NUM_PEAKS=6
COMPOUND_NAME=Phenthoate
SPECTRUM_ID=MSBNK-Eawag-EQ01129201
ADDUCT=[M+H]+
MS_LEVEL=MS2
PRECURSOR_MZ=321.0379
IONMODE=positive
NOMINAL_MASS=320
PARENT_MASS=320.0306
91.0542 44.0 
107.0492 8.0 
135.0441 43.0 
135.0803 51.0 
163.0753 811.0 
247.001 999.0 
END IONS

BEGIN IONS
SYNON=[3-(dimethylaminomethylideneamino)phenyl] N-methylcarbamate
INCHIKEY=RMFNNCGOSPBBAD-UHFFFAOYSA-N
INCHI=InChI=1S/C11H15N3O2/c1-12-11(15)16-10-6-4-5-9(7-10)13-8-14(2)3/h4-8H,1-3H3,(H,12,15)
SMILES=CNC(=O)OC1=CC=CC(=C1)N=CN(C)C
INSTRUMENT_TYPE=LC-ESI-QFT
INSTRUMENT=Exploris 240 Orbitrap Thermo Scientific
COLLISION_ENERGY=75 % (nominal)
FORMULA=C11H15N3O2
PARENT=222.1237
SPLASH=splash10-01b9-0900000000-4fbbc6b0850388d8c6bf
NUM_PEAKS=6
COMPOUND_NAME=Formetanate
SPECTRUM_ID=MSBNK-Eawag-EQ01126605
ADDUCT=[M+H]+
MS_LEVEL=MS2
PRECURSOR_MZ=222.1237
IONMODE=positive
NOMINAL_MASS=221
PARENT_MASS=221.1164
65.0387 43.0 
93.0336 58.0 
111.0441 104.0 
120.0444 660.0 
121.0396 159.0 
165.1022 999.0 
END IONS

BEGIN IONS
SYNON=N-[ethoxy-(3-methyl-4-methylsulfanylphenoxy)phosphoryl]propan-2-amine
INCHIKEY=ZCJPOPBZHLUFHF-UHFFFAOYSA-N
INCHI=InChI=1S/C13H22NO3PS/c1-6-16-18(15,14-10(2)3)17-12-7-8-13(19-5)11(4)9-12/h7-10H,6H2,1-5H3,(H,14,15)
SMILES=CCOP(=O)(NC(C)C)OC1=CC(=C(C=C1)SC)C
INSTRUMENT_TYPE=LC-ESI-QFT
INSTRUMENT=Exploris 240 Orbitrap Thermo Scientific
COLLISION_ENERGY=90 % (nominal)
FORMULA=C13H22NO3PS
PARENT=304.1131
SPLASH=splash10-0udi-4980000000-a81e3967fb873652f9af
NUM_PEAKS=34
COMPOUND_NAME=Fenamiphos
SPECTRUM_ID=MSBNK-Eawag-EQ01124706
ADDUCT=[M+H]+
MS_LEVEL=MS2
PRECURSOR_MZ=304.1131
IONMODE=positive
NOMINAL_MASS=303
PARENT_MASS=303.1058
53.0385 17.0 
58.995 54.0 
60.0806 9.0 
77.0383 42.0 
78.0464 38.0 
79.0541 83.0 
79.9897 18.0 
91.0541 132.0 
93.0695 41.0 
95.0493 11.0 
97.0106 162.0 
103.0542 44.0 
104.0618 52.0 
107.049 150.0 
108.0568 115.0 
109.0108 17.0 
110.0184 73.0 
111.0266 32.0 
122.0185 149.0 
125.0419 22.0 
135.0259 30.0 
137.0056 10.0 
137.042 22.0 
138.0133 147.0 
139.0211 39.0 
153.0366 84.0 
168.9872 67.0 
169.0049 100.0 
184.9821 48.0 
198.9982 18.0 
201.9847 999.0 
202.9925 31.0 
214.9928 21.0 
217.0086 62.0 
END IONS

BEGIN IONS
SYNON=2,2,2-trichloro-1-dimethoxyphosphorylethanol
INCHIKEY=NFACJZMKEDPNKN-UHFFFAOYSA-N
INCHI=InChI=1S/C4H8Cl3O4P/c1-10-12(9,11-2)3(8)4(5,6)7/h3,8H,1-2H3
SMILES=COP(=O)(C(C(Cl)(Cl)Cl)O)OC
INSTRUMENT_TYPE=LC-ESI-QFT
INSTRUMENT=Exploris 240 Orbitrap Thermo Scientific
COLLISION_ENERGY=45 % (nominal)
FORMULA=C4H8Cl3O4P
PARENT=256.9299
SPLASH=splash10-004i-0900000000-bda4e5fff9ea55cbd73c
NUM_PEAKS=7
COMPOUND_NAME=Trichlorfon
SPECTRUM_ID=MSBNK-Eawag-EQ01131803
ADDUCT=[M+H]+
MS_LEVEL=MS2
PRECURSOR_MZ=256.9299
IONMODE=positive
NOMINAL_MASS=256
PARENT_MASS=255.9226
78.9944 97.0 
82.9449 28.0 
96.9604 7.0 
109.0049 407.0 
111.0205 10.0 
127.0154 999.0 
220.9531 24.0 
END IONS

BEGIN IONS
SYNON=(3,5-dimethyl-4-methylsulfanyl-phenyl) N-methylcarbamate
INCHIKEY=YFBPRJGDJKVWAH-UHFFFAOYSA-N
INCHI=InChI=1S/C11H15NO2S/c1-7-5-9(14-11(13)12-3)6-8(2)10(7)15-4/h5-6H,1-4H3,(H,12,13)
SMILES=O=C(Oc1cc(c(SC)c(c1)C)C)NC
INSTRUMENT_TYPE=LC-ESI-ITFT
INSTRUMENT=LTQ Orbitrap XL Thermo Scientific
COLLISION_ENERGY=60 % (nominal)
FORMULA=C11H15NO2S
PARENT=226.0896
SPLASH=splash10-00di-1900000000-8f4494a8df473d1fa6c6
NUM_PEAKS=22
COMPOUND_NAME=Methiocarb
SPECTRUM_ID=MSBNK-Eawag-EA293705
ADDUCT=[M+H]+
MS_LEVEL=MS2
PRECURSOR_MZ=226.0896
IONMODE=positive
NOMINAL_MASS=225
PARENT_MASS=225.0823
53.0384 2.0 
67.0542 3.0 
77.0386 36.0 
79.0544 1.0 
91.0543 90.0 
93.07 183.0 
94.0777 1.0 
95.0491 2.0 
95.0855 1.0 
103.0543 3.0 
105.0448 12.0 
105.0697 1.0 
107.0492 31.0 
109.0647 2.0 
121.0649 999.0 
122.0727 471.0 
123.0804 14.0 
125.0418 1.0 
141.0734 1.0 
153.0369 14.0 
154.0447 30.0 
169.0677 50.0 
END IONS

BEGIN IONS
SYNON=[amino(methylsulfanyl)phosphoryl]oxymethane
INCHIKEY=NNKVPIKMPCQWCG-UHFFFAOYSA-N
INCHI=InChI=1S/C2H8NO2PS/c1-5-6(3,4)7-2/h1-2H3,(H2,3,4)
SMILES=COP(=O)(N)SC
INSTRUMENT_TYPE=LC-ESI-QFT
INSTRUMENT=Exploris 240 Orbitrap Thermo Scientific
COLLISION_ENERGY=30 % (nominal)
FORMULA=C2H8NO2PS
PARENT=142.0086
SPLASH=splash10-0006-3900000000-014d433debeef856cee0
NUM_PEAKS=4
COMPOUND_NAME=Methamidophos
SPECTRUM_ID=MSBNK-Eawag-EQ01128002
ADDUCT=[M+H]+
MS_LEVEL=MS2
PRECURSOR_MZ=142.0086
IONMODE=positive
NOMINAL_MASS=141
PARENT_MASS=141.0013
94.0052 468.0 
109.9825 34.0 
124.9821 305.0 
142.0086 999.0 
END IONS

BEGIN IONS
SYNON=[amino(methylsulfanyl)phosphoryl]oxymethane
INCHIKEY=NNKVPIKMPCQWCG-UHFFFAOYSA-N
INCHI=InChI=1S/C2H8NO2PS/c1-5-6(3,4)7-2/h1-2H3,(H2,3,4)
SMILES=COP(=O)(N)SC
INSTRUMENT_TYPE=LC-ESI-QFT
INSTRUMENT=Exploris 240 Orbitrap Thermo Scientific
COLLISION_ENERGY=60 % (nominal)
FORMULA=C2H8NO2PS
PARENT=142.0086
SPLASH=splash10-006x-9500000000-f4e177e4897f731f8005
NUM_PEAKS=8
COMPOUND_NAME=Methamidophos
SPECTRUM_ID=MSBNK-Eawag-EQ01128004
ADDUCT=[M+H]+
MS_LEVEL=MS2
PRECURSOR_MZ=142.0086
IONMODE=positive
NOMINAL_MASS=141
PARENT_MASS=141.0013
46.9949 56.0 
62.0185 11.0 
63.9945 28.0 
78.9943 92.0 
94.0052 999.0 
109.9822 110.0 
124.982 580.0 
142.0087 70.0 
END IONS

BEGIN IONS
SYNON=ethoxy-ethyl-(phenylthio)-sulfanylidenephosphorane
INCHIKEY=KVGLBTYUCJYMND-UHFFFAOYSA-N
INCHI=InChI=1S/C10H15OPS2/c1-3-11-12(13,4-2)14-10-8-6-5-7-9-10/h5-9H,3-4H2,1-2H3
SMILES=S=P(Sc1ccccc1)(OCC)CC
INSTRUMENT_TYPE=LC-ESI-QFT
INSTRUMENT=Q Exactive Orbitrap Thermo Scientific
COLLISION_ENERGY=90 (nominal)
FORMULA=C10H15OPS2
PARENT=247.0375
SPLASH=splash10-01si-9500000000-e97722576b127f7e1fce
NUM_PEAKS=21
COMPOUND_NAME=Fonofos
SPECTRUM_ID=MSBNK-Eawag-EQ311206
ADDUCT=[M+H]+
MS_LEVEL=MS2
PRECURSOR_MZ=247.0375
IONMODE=positive
NOMINAL_MASS=246
PARENT_MASS=246.03019
62.9453 965.0 
64.9786 6.0 
77.0151 6.0 
77.0385 6.0 
78.0464 5.0 
80.9558 999.0 
90.9765 20.0 
94.9173 76.0 
95.0491 72.0 
105.0447 16.0 
108.9871 458.0 
110.0184 8.0 
111.0263 39.0 
126.9977 724.0 
138.9765 8.0 
140.9595 1.0 
141.0134 2.0 
145.008 1.0 
156.9868 1.0 
170.9485 16.0 
174.9977 7.0 
END IONS

BEGIN IONS
SYNON=3-(dimethoxyphosphinothioylsulfanylmethyl)-1,2,3-benzotriazin-4-one
INCHIKEY=CJJOSEISRRTUQB-UHFFFAOYSA-N
INCHI=InChI=1S/C10H12N3O3PS2/c1-15-17(18,16-2)19-7-13-10(14)8-5-3-4-6-9(8)11-12-13/h3-6H,7H2,1-2H3
SMILES=COP(=S)(OC)SCN1C(=O)C2=CC=CC=C2N=N1
INSTRUMENT_TYPE=LC-ESI-QFT
INSTRUMENT=Q Exactive Plus Orbitrap Thermo Scientific
COLLISION_ENERGY=15 (nominal)
FORMULA=C10H12N3O3PS2
PARENT=318.013
SPLASH=splash10-03ec-0910000000-3c8f72aaa2fa7e2f29b8
NUM_PEAKS=24
COMPOUND_NAME=Azinphos-methyl
SPECTRUM_ID=MSBNK-Eawag-EQ365501
ADDUCT=[M+H]+
MS_LEVEL=MS2
PRECURSOR_MZ=318.013
IONMODE=positive
NOMINAL_MASS=317
PARENT_MASS=317.00577
51.0228 1.0 
77.0382 7.0 
93.0101 16.0 
95.0492 3.0 
104.0495 28.0 
105.0336 21.0 
110.9662 1.0 
120.0446 8.0 
124.9822 122.0 
132.0445 999.0 
135.0442 14.0 
135.9973 1.0 
137.0059 1.0 
142.9928 790.0 
144.9974 1.0 
148.0217 28.0 
150.0552 127.0 
154.0088 8.0 
157.0085 12.0 
160.0507 557.0 
167.0163 209.0 
170.97 252.0 
182.9935 78.0 
260.9807 624.0 
END IONS

BEGIN IONS
SYNON=N-methylcarbamic acid 1-naphthalenyl ester
INCHIKEY=CVXBEEMKQHEXEN-UHFFFAOYSA-N
INCHI=InChI=1S/C12H11NO2/c1-13-12(14)15-11-8-4-6-9-5-2-3-7-10(9)11/h2-8H,1H3,(H,13,14)
SMILES=c12c(OC(NC)=O)cccc1cccc2
INSTRUMENT_TYPE=LC-ESI-QFT
INSTRUMENT=Q Exactive Orbitrap Thermo Scientific
COLLISION_ENERGY=15 (nominal)
FORMULA=C12H11NO2
PARENT=202.0863
SPLASH=splash10-0002-0900000000-2830305f2b62f133e62f
NUM_PEAKS=7
COMPOUND_NAME=Carbaryl
SPECTRUM_ID=MSBNK-Eawag-EQ303801
ADDUCT=[M+H]+
MS_LEVEL=MS2
PRECURSOR_MZ=202.0863
IONMODE=positive
NOMINAL_MASS=201
PARENT_MASS=201.07898
58.0288 2.0 
91.0539 1.0 
115.0538 2.0 
117.0698 7.0 
127.0541 1.0 
145.0649 999.0 
155.0605 2.0 
END IONS

BEGIN IONS
SYNON=(2,2-dimethyl-3H-1-benzofuran-7-yl) N-(dibutylamino)sulfanyl-N-methylcarbamate
INCHIKEY=JLQUFIHWVLZVTJ-UHFFFAOYSA-N
INCHI=InChI=1S/C20H32N2O3S/c1-6-8-13-22(14-9-7-2)26-21(5)19(23)24-17-12-10-11-16-15-20(3,4)25-18(16)17/h10-12H,6-9,13-15H2,1-5H3
SMILES=CCCCN(CCCC)SN(C)C(=O)OC1=CC=CC2=C1OC(C2)(C)C
INSTRUMENT_TYPE=LC-ESI-QFT
INSTRUMENT=Exploris 240 Orbitrap Thermo Scientific
COLLISION_ENERGY=60 % (nominal)
FORMULA=C20H32N2O3S
PARENT=381.2206
SPLASH=splash10-004i-9600000000-228eaaa02812f1eeaa3b
NUM_PEAKS=11
COMPOUND_NAME=Carbosulfan
SPECTRUM_ID=MSBNK-Eawag-EQ01121404
ADDUCT=[M+H]+
MS_LEVEL=MS2
PRECURSOR_MZ=381.2206
IONMODE=positive
NOMINAL_MASS=380
PARENT_MASS=380.2134
57.0699 193.0 
62.0059 181.0 
72.0807 80.0 
76.0215 999.0 
86.0962 71.0 
104.0527 119.0 
118.0684 566.0 
123.0439 163.0 
128.1433 203.0 
160.1155 55.0 
165.0911 47.0 
END IONS

BEGIN IONS
SYNON=3-(diethoxyphosphinothioylsulfanylmethyl)-1,2,3-benzotriazin-4-one
INCHIKEY=RQVGAIADHNPSME-UHFFFAOYSA-N
INCHI=InChI=1S/C12H16N3O3PS2/c1-3-17-19(20,18-4-2)21-9-15-12(16)10-7-5-6-8-11(10)13-14-15/h5-8H,3-4,9H2,1-2H3
SMILES=CCOP(=S)(OCC)SCN1C(=O)C2=CC=CC=C2N=N1
INSTRUMENT_TYPE=LC-ESI-QFT
INSTRUMENT=Q Exactive Plus Orbitrap Thermo Scientific
COLLISION_ENERGY=30 (nominal)
FORMULA=C12H16N3O3PS2
PARENT=346.0443
SPLASH=splash10-01q9-0910000000-80475d9fd8530dffc2f0
NUM_PEAKS=50
COMPOUND_NAME=Azinphos-ethyl
SPECTRUM_ID=MSBNK-Eawag-EQ365402
ADDUCT=[M+H]+
MS_LEVEL=MS2
PRECURSOR_MZ=346.0443
IONMODE=positive
NOMINAL_MASS=345
PARENT_MASS=345.03707
50.015 1.0 
51.0229 1.0 
53.0386 12.0 
64.9787 5.0 
75.0262 2.0 
77.0385 15.0 
81.0335 1.0 
95.0492 50.0 
96.9508 80.0 
98.9842 7.0 
104.0495 203.0 
105.0336 130.0 
105.0448 29.0 
109.0048 1.0 
109.0108 5.0 
109.9826 4.0 
110.9665 1.0 
114.9614 938.0 
120.0443 8.0 
121.065 2.0 
123.0262 2.0 
124.9822 43.0 
126.9437 10.0 
128.9771 15.0 
130.0401 6.0 
131.0494 1.0 
132.0445 999.0 
132.972 5.0 
136.0217 19.0 
137.0057 624.0 
138.014 2.0 
142.9386 494.0 
148.0216 58.0 
150.0551 114.0 
152.9829 13.0 
153.0007 26.0 
153.0135 39.0 
160.0507 22.0 
166.0323 47.0 
168.9778 7.0 
170.9699 87.0 
171.024 78.0 
172.9819 3.0 
182.0095 12.0 
197.0087 3.0 
214.9386 27.0 
216.9721 40.0 
232.9493 438.0 
260.9804 37.0 
261.9764 4.0 
END IONS

BEGIN IONS
SYNON=N-methylcarbamic acid 1-naphthalenyl ester
INCHIKEY=CVXBEEMKQHEXEN-UHFFFAOYSA-N
INCHI=InChI=1S/C12H11NO2/c1-13-12(14)15-11-8-4-6-9-5-2-3-7-10(9)11/h2-8H,1H3,(H,13,14)
SMILES=c12c(OC(NC)=O)cccc1cccc2
INSTRUMENT_TYPE=LC-ESI-QFT
INSTRUMENT=Q Exactive Orbitrap Thermo Scientific
COLLISION_ENERGY=30 (nominal)
FORMULA=C12H11NO2
PARENT=202.0863
SPLASH=splash10-0002-0900000000-e31e9b3924d76a89b9b3
NUM_PEAKS=6
COMPOUND_NAME=Carbaryl
SPECTRUM_ID=MSBNK-Eawag-EQ303802
ADDUCT=[M+H]+
MS_LEVEL=MS2
PRECURSOR_MZ=202.0863
IONMODE=positive
NOMINAL_MASS=201
PARENT_MASS=201.07898
58.0288 2.0 
115.0537 2.0 
117.0698 16.0 
127.0544 2.0 
145.0649 999.0 
155.0603 7.0 
END IONS

BEGIN IONS
SYNON=2-(dimethoxyphosphinothioylsulfanylmethyl)isoindole-1,3-dione
INCHIKEY=LMNZTLDVJIUSHT-UHFFFAOYSA-N
INCHI=InChI=1S/C11H12NO4PS2/c1-15-17(18,16-2)19-7-12-10(13)8-5-3-4-6-9(8)11(12)14/h3-6H,7H2,1-2H3
SMILES=COP(=S)(OC)SCN1C(=O)C2=CC=CC=C2C1=O
INSTRUMENT_TYPE=LC-ESI-QFT
INSTRUMENT=Q Exactive Orbitrap Thermo Scientific
COLLISION_ENERGY=90 (nominal)
FORMULA=C11H12NO4PS2
PARENT=318.0018
SPLASH=splash10-06sj-3900000000-b97e04c432c88f5fa05e
NUM_PEAKS=20
COMPOUND_NAME=Phosmet
SPECTRUM_ID=MSBNK-Eawag-EQ310106
ADDUCT=[M+H]+
MS_LEVEL=MS2
PRECURSOR_MZ=318.0018
IONMODE=positive
NOMINAL_MASS=317
PARENT_MASS=316.99454
50.0152 21.0 
51.023 35.0 
53.0387 34.0 
67.0542 32.0 
76.0307 5.0 
77.0386 159.0 
81.0335 34.0 
92.0256 43.0 
92.0368 14.0 
95.0492 890.0 
104.0257 9.0 
104.0495 130.0 
105.0336 683.0 
105.0447 175.0 
120.0442 36.0 
130.0289 136.0 
130.04 68.0 
132.0442 63.0 
133.0284 999.0 
160.0393 671.0 
END IONS

BEGIN IONS
SYNON=2-(dimethoxyphosphinothioylsulfanylmethyl)isoindole-1,3-dione
INCHIKEY=LMNZTLDVJIUSHT-UHFFFAOYSA-N
INCHI=InChI=1S/C11H12NO4PS2/c1-15-17(18,16-2)19-7-12-10(13)8-5-3-4-6-9(8)11(12)14/h3-6H,7H2,1-2H3
SMILES=COP(=S)(OC)SCN1C(=O)C2=CC=CC=C2C1=O
INSTRUMENT_TYPE=LC-ESI-QFT
INSTRUMENT=Q Exactive Orbitrap Thermo Scientific
COLLISION_ENERGY=30 (nominal)
FORMULA=C11H12NO4PS2
PARENT=318.0018
SPLASH=splash10-03di-0900000000-66479cf96aa22f5da506
NUM_PEAKS=6
COMPOUND_NAME=Phosmet
SPECTRUM_ID=MSBNK-Eawag-EQ310102
ADDUCT=[M+H]+
MS_LEVEL=MS2
PRECURSOR_MZ=318.0018
IONMODE=positive
NOMINAL_MASS=317
PARENT_MASS=316.99454
77.0383 1.0 
105.0335 1.0 
133.0283 5.0 
142.9931 1.0 
160.0393 999.0 
178.05 5.0 
END IONS

BEGIN IONS
SYNON=(3,5-dimethyl-4-methylsulfanyl-phenyl) N-methylcarbamate
INCHIKEY=YFBPRJGDJKVWAH-UHFFFAOYSA-N
INCHI=InChI=1S/C11H15NO2S/c1-7-5-9(14-11(13)12-3)6-8(2)10(7)15-4/h5-6H,1-4H3,(H,12,13)
SMILES=O=C(Oc1cc(c(SC)c(c1)C)C)NC
INSTRUMENT_TYPE=LC-ESI-ITFT
INSTRUMENT=LTQ Orbitrap XL Thermo Scientific
COLLISION_ENERGY=30 % (nominal)
FORMULA=C11H15NO2S
PARENT=226.0896
SPLASH=splash10-014i-0900000000-b4ea8a527326d4e35d63
NUM_PEAKS=11
COMPOUND_NAME=Methiocarb
SPECTRUM_ID=MSBNK-Eawag-EA293709
ADDUCT=[M+H]+
MS_LEVEL=MS2
PRECURSOR_MZ=226.0896
IONMODE=positive
NOMINAL_MASS=225
PARENT_MASS=225.0823
77.0389 2.0 
91.0542 8.0 
93.0699 22.0 
121.0647 376.0 
122.0726 48.0 
123.0804 5.0 
141.0732 2.0 
153.0368 2.0 
154.0441 1.0 
169.0681 999.0 
226.0901 2.0 
END IONS

BEGIN IONS
SYNON=2-(dimethoxyphosphinothioylsulfanylmethyl)isoindole-1,3-dione
INCHIKEY=LMNZTLDVJIUSHT-UHFFFAOYSA-N
INCHI=InChI=1S/C11H12NO4PS2/c1-15-17(18,16-2)19-7-12-10(13)8-5-3-4-6-9(8)11(12)14/h3-6H,7H2,1-2H3
SMILES=COP(=S)(OC)SCN1C(=O)C2=CC=CC=C2C1=O
INSTRUMENT_TYPE=LC-ESI-QFT
INSTRUMENT=Q Exactive Orbitrap Thermo Scientific
COLLISION_ENERGY=75 (nominal)
FORMULA=C11H12NO4PS2
PARENT=318.0018
SPLASH=splash10-03e9-1900000000-c59e05b23007bdd07bd7
NUM_PEAKS=21
COMPOUND_NAME=Phosmet
SPECTRUM_ID=MSBNK-Eawag-EQ310105
ADDUCT=[M+H]+
MS_LEVEL=MS2
PRECURSOR_MZ=318.0018
IONMODE=positive
NOMINAL_MASS=317
PARENT_MASS=316.99454
50.0152 2.0 
51.0229 3.0 
53.0387 5.0 
67.0543 6.0 
69.0699 2.0 
77.0385 32.0 
81.0335 5.0 
92.0255 4.0 
92.0369 3.0 
95.0492 192.0 
104.0257 3.0 
104.0496 50.0 
105.0336 262.0 
105.0448 38.0 
120.0447 10.0 
130.0289 88.0 
130.0401 23.0 
132.0443 34.0 
133.0285 633.0 
160.0394 999.0 
178.0502 2.0 
END IONS

BEGIN IONS
SYNON=diethoxy-(2-isopropyl-6-methyl-pyrimidin-4-yl)oxy-thioxo-phosphorane
INCHIKEY=FHIVAFMUCKRCQO-UHFFFAOYSA-N
INCHI=InChI=1S/C12H21N2O3PS/c1-6-15-18(19,16-7-2)17-11-8-10(5)13-12(14-11)9(3)4/h8-9H,6-7H2,1-5H3
SMILES=O(c1nc(nc(c1)C)C(C)C)P(OCC)(OCC)=S
INSTRUMENT_TYPE=LC-ESI-ITFT
INSTRUMENT=LTQ Orbitrap XL Thermo Scientific
COLLISION_ENERGY=35 % (nominal)
FORMULA=C12H21N2O3PS
PARENT=305.1083
SPLASH=splash10-0gb9-0900000000-c242d24704a15f911a56
NUM_PEAKS=9
COMPOUND_NAME=Diazinon
SPECTRUM_ID=MSBNK-Eawag-EA029314
ADDUCT=[M+H]+
MS_LEVEL=MS2
PRECURSOR_MZ=305.1083
IONMODE=positive
NOMINAL_MASS=304
PARENT_MASS=304.1011
96.9511 2.0 
100.0214 2.0 
153.1023 524.0 
169.0795 999.0 
181.1336 3.0 
197.1106 2.0 
206.0937 1.0 
249.0457 6.0 
277.0771 48.0 
END IONS

BEGIN IONS
SYNON=[3-(dimethylaminomethylideneamino)phenyl] N-methylcarbamate
INCHIKEY=RMFNNCGOSPBBAD-UHFFFAOYSA-N
INCHI=InChI=1S/C11H15N3O2/c1-12-11(15)16-10-6-4-5-9(7-10)13-8-14(2)3/h4-8H,1-3H3,(H,12,15)
SMILES=CNC(=O)OC1=CC=CC(=C1)N=CN(C)C
INSTRUMENT_TYPE=LC-ESI-QFT
INSTRUMENT=Exploris 240 Orbitrap Thermo Scientific
COLLISION_ENERGY=90 % (nominal)
FORMULA=C11H15N3O2
PARENT=222.1237
SPLASH=splash10-00di-2900000000-1440d357de835c9a0757
NUM_PEAKS=7
COMPOUND_NAME=Formetanate
SPECTRUM_ID=MSBNK-Eawag-EQ01126606
ADDUCT=[M+H]+
MS_LEVEL=MS2
PRECURSOR_MZ=222.1237
IONMODE=positive
NOMINAL_MASS=221
PARENT_MASS=221.1164
55.0179 58.0 
65.0386 382.0 
93.0335 265.0 
111.044 388.0 
120.0444 999.0 
121.0396 638.0 
165.1021 394.0 
END IONS

BEGIN IONS
SYNON=2,2,2-trichloro-1-dimethoxyphosphorylethanol
INCHIKEY=NFACJZMKEDPNKN-UHFFFAOYSA-N
INCHI=InChI=1S/C4H8Cl3O4P/c1-10-12(9,11-2)3(8)4(5,6)7/h3,8H,1-2H3
SMILES=COP(=O)(C(C(Cl)(Cl)Cl)O)OC
INSTRUMENT_TYPE=LC-ESI-QFT
INSTRUMENT=Exploris 240 Orbitrap Thermo Scientific
COLLISION_ENERGY=75 % (nominal)
FORMULA=C4H8Cl3O4P
PARENT=256.9299
SPLASH=splash10-004i-7900000000-c199e2757073d960ab26
NUM_PEAKS=10
COMPOUND_NAME=Trichlorfon
SPECTRUM_ID=MSBNK-Eawag-EQ01131805
ADDUCT=[M+H]+
MS_LEVEL=MS2
PRECURSOR_MZ=256.9299
IONMODE=positive
NOMINAL_MASS=256
PARENT_MASS=255.9226
62.9994 47.0 
78.9943 740.0 
82.9449 248.0 
93.0099 92.0 
96.9604 18.0 
97.0049 18.0 
109.0049 401.0 
111.0204 15.0 
112.9999 11.0 
127.0154 999.0 
END IONS

BEGIN IONS
SYNON=ethoxy-ethyl-(phenylthio)-sulfanylidenephosphorane
INCHIKEY=KVGLBTYUCJYMND-UHFFFAOYSA-N
INCHI=InChI=1S/C10H15OPS2/c1-3-11-12(13,4-2)14-10-8-6-5-7-9-10/h5-9H,3-4H2,1-2H3
SMILES=S=P(Sc1ccccc1)(OCC)CC
INSTRUMENT_TYPE=LC-ESI-QFT
INSTRUMENT=Q Exactive Orbitrap Thermo Scientific
COLLISION_ENERGY=45 (nominal)
FORMULA=C10H15OPS2
PARENT=247.0375
SPLASH=splash10-056r-0900000000-4c20602c77a576e7514a
NUM_PEAKS=18
COMPOUND_NAME=Fonofos
SPECTRUM_ID=MSBNK-Eawag-EQ311203
ADDUCT=[M+H]+
MS_LEVEL=MS2
PRECURSOR_MZ=247.0375
IONMODE=positive
NOMINAL_MASS=246
PARENT_MASS=246.03019
62.9453 54.0 
64.9784 3.0 
80.9558 121.0 
90.9765 4.0 
94.9173 10.0 
108.9871 793.0 
111.0262 26.0 
126.9977 999.0 
137.0184 62.0 
140.9594 2.0 
141.0134 7.0 
145.0083 4.0 
155.0289 8.0 
170.9484 4.0 
172.9643 14.0 
185.0188 2.0 
200.9955 27.0 
203.0294 1.0 
END IONS

BEGIN IONS
SYNON=2,2,2-trichloro-1-dimethoxyphosphorylethanol
INCHIKEY=NFACJZMKEDPNKN-UHFFFAOYSA-N
INCHI=InChI=1S/C4H8Cl3O4P/c1-10-12(9,11-2)3(8)4(5,6)7/h3,8H,1-2H3
SMILES=COP(=O)(C(C(Cl)(Cl)Cl)O)OC
INSTRUMENT_TYPE=LC-ESI-QFT
INSTRUMENT=Exploris 240 Orbitrap Thermo Scientific
COLLISION_ENERGY=90 % (nominal)
FORMULA=C4H8Cl3O4P
PARENT=256.9299
SPLASH=splash10-004i-9400000000-4fa5bffe5d6ee155a66b
NUM_PEAKS=7
COMPOUND_NAME=Trichlorfon
SPECTRUM_ID=MSBNK-Eawag-EQ01131806
ADDUCT=[M+H]+
MS_LEVEL=MS2
PRECURSOR_MZ=256.9299
IONMODE=positive
NOMINAL_MASS=256
PARENT_MASS=255.9226
62.9994 92.0 
78.9943 999.0 
82.945 556.0 
93.0099 86.0 
96.9602 16.0 
109.0048 253.0 
127.0155 641.0 
END IONS

BEGIN IONS
SYNON=ethyl 2-dimethoxyphosphinothioylsulfanyl-2-phenylacetate
INCHIKEY=XAMUDJHXFNRLCY-UHFFFAOYSA-N
INCHI=InChI=1S/C12H17O4PS2/c1-4-16-12(13)11(10-8-6-5-7-9-10)19-17(18,14-2)15-3/h5-9,11H,4H2,1-3H3
SMILES=CCOC(=O)C(C1=CC=CC=C1)SP(=S)(OC)OC
INSTRUMENT_TYPE=LC-ESI-QFT
INSTRUMENT=Exploris 240 Orbitrap Thermo Scientific
COLLISION_ENERGY=120 % (nominal)
FORMULA=C12H17O4PS2
PARENT=321.0379
SPLASH=splash10-004i-9000000000-585bacbb0ca23cd8d495
NUM_PEAKS=10
COMPOUND_NAME=Phenthoate
SPECTRUM_ID=MSBNK-Eawag-EQ01129207
ADDUCT=[M+H]+
MS_LEVEL=MS2
PRECURSOR_MZ=321.0379
IONMODE=positive
NOMINAL_MASS=320
PARENT_MASS=320.0306
51.0229 49.0 
53.0386 106.0 
65.0385 76.0 
77.0385 394.0 
79.0542 999.0 
81.0334 11.0 
91.0542 273.0 
94.0414 13.0 
95.0491 121.0 
107.049 32.0 
END IONS

BEGIN IONS
SYNON=ethyl 2-dimethoxyphosphinothioylsulfanyl-2-phenylacetate
INCHIKEY=XAMUDJHXFNRLCY-UHFFFAOYSA-N
INCHI=InChI=1S/C12H17O4PS2/c1-4-16-12(13)11(10-8-6-5-7-9-10)19-17(18,14-2)15-3/h5-9,11H,4H2,1-3H3
SMILES=CCOC(=O)C(C1=CC=CC=C1)SP(=S)(OC)OC
INSTRUMENT_TYPE=LC-ESI-QFT
INSTRUMENT=Exploris 240 Orbitrap Thermo Scientific
COLLISION_ENERGY=150 % (nominal)
FORMULA=C12H17O4PS2
PARENT=321.0379
SPLASH=splash10-004i-9000000000-1a886ddc25d5ca2f7b36
NUM_PEAKS=11
COMPOUND_NAME=Phenthoate
SPECTRUM_ID=MSBNK-Eawag-EQ01129208
ADDUCT=[M+H]+
MS_LEVEL=MS2
PRECURSOR_MZ=321.0379
IONMODE=positive
NOMINAL_MASS=320
PARENT_MASS=320.0306
50.0151 40.0 
51.0229 334.0 
53.0385 265.0 
63.0229 17.0 
65.0386 234.0 
77.0385 999.0 
79.0542 717.0 
81.0336 11.0 
91.0541 263.0 
94.0413 34.0 
95.0491 258.0 
END IONS

BEGIN IONS
SYNON=(2,2-dimethyl-3H-1-benzofuran-7-yl) N-(dibutylamino)sulfanyl-N-methylcarbamate
INCHIKEY=JLQUFIHWVLZVTJ-UHFFFAOYSA-N
INCHI=InChI=1S/C20H32N2O3S/c1-6-8-13-22(14-9-7-2)26-21(5)19(23)24-17-12-10-11-16-15-20(3,4)25-18(16)17/h10-12H,6-9,13-15H2,1-5H3
SMILES=CCCCN(CCCC)SN(C)C(=O)OC1=CC=CC2=C1OC(C2)(C)C
INSTRUMENT_TYPE=LC-ESI-QFT
INSTRUMENT=Exploris 240 Orbitrap Thermo Scientific
COLLISION_ENERGY=30 % (nominal)
FORMULA=C20H32N2O3S
PARENT=381.2206
SPLASH=splash10-014i-0900000000-62e64619a26ded202a6c
NUM_PEAKS=11
COMPOUND_NAME=Carbosulfan
SPECTRUM_ID=MSBNK-Eawag-EQ01121402
ADDUCT=[M+H]+
MS_LEVEL=MS2
PRECURSOR_MZ=381.2206
IONMODE=positive
NOMINAL_MASS=380
PARENT_MASS=380.2134
76.0215 97.0 
86.0965 18.0 
104.053 16.0 
118.0684 999.0 
123.0441 8.0 
128.1432 314.0 
149.0595 22.0 
160.1153 430.0 
165.0907 138.0 
195.0474 38.0 
222.1125 38.0 
END IONS

BEGIN IONS
SYNON=(1E)-N-(methylcarbamoyloxy)ethanimidothioic acid methyl ester
INCHIKEY=UHXUZOCRWCRNSJ-QPJJXVBHSA-N
INCHI=InChI=1S/C5H10N2O2S/c1-4(10-3)7-9-5(8)6-2/h1-3H3,(H,6,8)/b7-4+
SMILES=C/C(=N\OC(=O)NC)SC
INSTRUMENT_TYPE=LC-ESI-ITFT
INSTRUMENT=LTQ Orbitrap XL Thermo Scientific
COLLISION_ENERGY=15 % (nominal)
FORMULA=C5H10N2O2S
PARENT=163.0536
SPLASH=splash10-052r-9600000000-f23a2fc883ac3c1eec87
NUM_PEAKS=10
COMPOUND_NAME=Methomyl
SPECTRUM_ID=MSBNK-Eawag-EA294208
ADDUCT=[M+H]+
MS_LEVEL=MS2
PRECURSOR_MZ=163.0536
IONMODE=positive
NOMINAL_MASS=162
PARENT_MASS=162.0463
56.0495 3.0 
57.0699 4.0 
58.0287 30.0 
65.0056 194.0 
88.0216 999.0 
89.0596 28.0 
106.0322 748.0 
107.0702 30.0 
122.0271 52.0 
163.0537 22.0 
END IONS

BEGIN IONS
SYNON=ethyl 3-[[(2,2-dimethyl-3H-1-benzofuran-7-yl)oxycarbonyl-methylamino]sulfanyl-propan-2-ylamino]propanoate
INCHIKEY=FYZBOYWSHKHDMT-UHFFFAOYSA-N
INCHI=InChI=1S/C20H30N2O5S/c1-7-25-17(23)11-12-22(14(2)3)28-21(6)19(24)26-16-10-8-9-15-13-20(4,5)27-18(15)16/h8-10,14H,7,11-13H2,1-6H3
SMILES=CCOC(=O)CCN(C(C)C)SN(C)C(=O)OC1=CC=CC2=C1OC(C2)(C)C
INSTRUMENT_TYPE=LC-ESI-QFT
INSTRUMENT=Exploris 240 Orbitrap Thermo Scientific
COLLISION_ENERGY=120 % (nominal)
FORMULA=C20H30N2O5S
PARENT=411.1948
SPLASH=splash10-067i-9600000000-038e9e06579214a86e44
NUM_PEAKS=38
COMPOUND_NAME=Benfuracarb
SPECTRUM_ID=MSBNK-Eawag-EQ01120507
ADDUCT=[M+H]+
MS_LEVEL=MS2
PRECURSOR_MZ=411.1948
IONMODE=positive
NOMINAL_MASS=410
PARENT_MASS=410.1875
53.0386 377.0 
55.0178 271.0 
56.0495 90.0 
56.9794 95.0 
58.0287 235.0 
58.995 66.0 
59.9903 60.0 
65.0386 103.0 
67.0177 122.0 
67.0543 62.0 
68.9792 31.0 
70.0651 161.0 
73.0283 120.0 
74.0058 389.0 
77.0388 76.0 
79.0542 221.0 
81.0335 613.0 
81.0702 62.0 
84.9743 611.0 
90.0372 65.0 
91.0543 322.0 
95.0494 85.0 
97.0106 550.0 
102.0011 45.0 
103.0543 84.0 
105.0449 47.0 
105.0698 130.0 
109.0284 717.0 
111.0268 33.0 
115.0542 999.0 
116.062 660.0 
119.0492 61.0 
123.0444 78.0 
133.0647 36.0 
134.0188 102.0 
144.057 100.0 
147.0439 231.0 
161.0598 55.0 
END IONS

BEGIN IONS
SYNON=diethoxy-sulfanylidene-(3,5,6-trichloropyridin-2-yl)oxy-{5}-phosphane
INCHIKEY=SBPBAQFWLVIOKP-UHFFFAOYSA-N
INCHI=InChI=1S/C9H11Cl3NO3PS/c1-3-14-17(18,15-4-2)16-9-7(11)5-6(10)8(12)13-9/h5H,3-4H2,1-2H3
SMILES=Clc1c(OP(=S)(OCC)OCC)nc(Cl)c(Cl)c1
INSTRUMENT_TYPE=LC-ESI-ITFT
INSTRUMENT=LTQ Orbitrap XL Thermo Scientific
COLLISION_ENERGY=45 % (nominal)
FORMULA=C9H11Cl3NO3PS
PARENT=349.9336
SPLASH=splash10-01ot-2910000000-ba821b94f503bfeb9235
NUM_PEAKS=23
COMPOUND_NAME=Chlorpyrifos
SPECTRUM_ID=MSBNK-Eawag-EA295010
ADDUCT=[M+H]+
MS_LEVEL=MS2
PRECURSOR_MZ=349.9336
IONMODE=positive
NOMINAL_MASS=349
PARENT_MASS=348.9263
78.9403 1.0 
96.9508 453.0 
98.9843 1.0 
106.945 1.0 
109.0047 2.0 
110.9664 2.0 
114.9613 781.0 
116.9654 1.0 
124.9821 42.0 
128.977 2.0 
133.9559 1.0 
142.9926 9.0 
153.0134 1.0 
171.024 3.0 
179.9613 6.0 
197.9275 999.0 
213.9046 167.0 
225.9583 1.0 
275.8604 55.0 
277.8938 4.0 
293.871 54.0 
321.9192 5.0 
325.9228 1.0 
END IONS

BEGIN IONS
SYNON=N,N-dimethylcarbamic acid [2-(dimethylamino)-5,6-dimethyl-4-pyrimidinyl] ester
INCHIKEY=YFGYUFNIOHWBOB-UHFFFAOYSA-N
INCHI=InChI=1S/C11H18N4O2/c1-7-8(2)12-10(14(3)4)13-9(7)17-11(16)15(5)6/h1-6H3
SMILES=n(c(c(C)c1OC(=O)N(C)C)C)c(n1)N(C)C
INSTRUMENT_TYPE=LC-ESI-ITFT
INSTRUMENT=LTQ Orbitrap XL Thermo Scientific
COLLISION_ENERGY=15 % (nominal)
FORMULA=C11H18N4O2
PARENT=239.1503
SPLASH=splash10-000i-0090000000-f8263ce92ca726368067
NUM_PEAKS=4
COMPOUND_NAME=Pirimicarb
SPECTRUM_ID=MSBNK-Eawag-EA271108
ADDUCT=[M+H]+
MS_LEVEL=MS2
PRECURSOR_MZ=239.1503
IONMODE=positive
NOMINAL_MASS=238
PARENT_MASS=238.1430
72.0442 25.0 
182.1288 32.0 
195.1602 8.0 
239.1504 999.0 
END IONS

BEGIN IONS
SYNON=methyl N-[methyl-[methyl-(1-methylsulfanylethylideneamino)oxycarbonylamino]sulfanylcarbamoyl]oxyethanimidothioate
INCHIKEY=XDOTVMNBCQVZKG-UHFFFAOYSA-N
INCHI=InChI=1S/C10H18N4O4S3/c1-7(19-5)11-17-9(15)13(3)21-14(4)10(16)18-12-8(2)20-6/h1-6H3
SMILES=CC(=NOC(=O)N(C)SN(C)C(=O)ON=C(C)SC)SC
INSTRUMENT_TYPE=LC-ESI-QFT
INSTRUMENT=Exploris 240 Orbitrap Thermo Scientific
COLLISION_ENERGY=75 % (nominal)
FORMULA=C10H18N4O4S3
PARENT=355.0563
SPLASH=splash10-000i-9000000000-1931fd324dba05ebf2fb
NUM_PEAKS=14
COMPOUND_NAME=Thiodicarb
SPECTRUM_ID=MSBNK-Eawag-EQ01131405
ADDUCT=[M+H]+
MS_LEVEL=MS2
PRECURSOR_MZ=355.0563
IONMODE=positive
NOMINAL_MASS=354
PARENT_MASS=354.0490
56.0495 105.0 
58.0287 16.0 
59.9902 82.0 
60.9981 52.0 
61.0106 53.0 
62.0059 209.0 
71.9902 10.0 
72.9981 208.0 
74.0061 12.0 
78.0007 6.0 
78.967 163.0 
80.9828 6.0 
88.0215 999.0 
107.9937 31.0 
END IONS

BEGIN IONS
SYNON=diethoxy-sulfanylidene-(3,5,6-trichloropyridin-2-yl)oxy-{5}-phosphane
INCHIKEY=SBPBAQFWLVIOKP-UHFFFAOYSA-N
INCHI=InChI=1S/C9H11Cl3NO3PS/c1-3-14-17(18,15-4-2)16-9-7(11)5-6(10)8(12)13-9/h5H,3-4H2,1-2H3
SMILES=Clc1c(OP(=S)(OCC)OCC)nc(Cl)c(Cl)c1
INSTRUMENT_TYPE=LC-ESI-ITFT
INSTRUMENT=LTQ Orbitrap XL Thermo Scientific
COLLISION_ENERGY=30 % (nominal)
FORMULA=C9H11Cl3NO3PS
PARENT=349.9336
SPLASH=splash10-0002-1910000000-bfd22e25d1af7f7accb3
NUM_PEAKS=16
COMPOUND_NAME=Chlorpyrifos
SPECTRUM_ID=MSBNK-Eawag-EA295009
ADDUCT=[M+H]+
MS_LEVEL=MS2
PRECURSOR_MZ=349.9336
IONMODE=positive
NOMINAL_MASS=349
PARENT_MASS=348.9263
96.9508 379.0 
110.9664 1.0 
114.9613 585.0 
124.9821 147.0 
128.9769 2.0 
142.9927 36.0 
153.0134 33.0 
171.0239 56.0 
197.9275 999.0 
213.9047 53.0 
225.9588 10.0 
275.8603 29.0 
293.8709 314.0 
303.8913 2.0 
321.9021 67.0 
321.9218 9.0 
END IONS

BEGIN IONS
SYNON=2-[butan-2-ylsulfanyl(ethoxy)phosphoryl]sulfanylbutane
INCHIKEY=KXRPCFINVWWFHQ-UHFFFAOYSA-N
INCHI=InChI=1S/C10H23O2PS2/c1-6-9(4)14-13(11,12-8-3)15-10(5)7-2/h9-10H,6-8H2,1-5H3
SMILES=CCC(C)SP(=O)(OCC)SC(C)CC
INSTRUMENT_TYPE=LC-ESI-QFT
INSTRUMENT=Exploris 240 Orbitrap Thermo Scientific
COLLISION_ENERGY=60 % (nominal)
FORMULA=C10H23O2PS2
PARENT=271.095
SPLASH=splash10-001i-3900000000-2f354425e214ec5bc0cd
NUM_PEAKS=7
COMPOUND_NAME=Cadusafos
SPECTRUM_ID=MSBNK-Eawag-EQ01121204
ADDUCT=[M+H]+
MS_LEVEL=MS2
PRECURSOR_MZ=271.095
IONMODE=positive
NOMINAL_MASS=270
PARENT_MASS=270.0877
57.0699 63.0 
96.9507 415.0 
110.9664 16.0 
112.9277 17.0 
124.9821 10.0 
130.9385 999.0 
158.9698 90.0 
END IONS

BEGIN IONS
SYNON=2-[butan-2-ylsulfanyl(ethoxy)phosphoryl]sulfanylbutane
INCHIKEY=KXRPCFINVWWFHQ-UHFFFAOYSA-N
INCHI=InChI=1S/C10H23O2PS2/c1-6-9(4)14-13(11,12-8-3)15-10(5)7-2/h9-10H,6-8H2,1-5H3
SMILES=CCC(C)SP(=O)(OCC)SC(C)CC
INSTRUMENT_TYPE=LC-ESI-QFT
INSTRUMENT=Exploris 240 Orbitrap Thermo Scientific
COLLISION_ENERGY=45 % (nominal)
FORMULA=C10H23O2PS2
PARENT=271.095
SPLASH=splash10-053r-0900000000-c49629c3718e580e1593
NUM_PEAKS=5
COMPOUND_NAME=Cadusafos
SPECTRUM_ID=MSBNK-Eawag-EQ01121203
ADDUCT=[M+H]+
MS_LEVEL=MS2
PRECURSOR_MZ=271.095
IONMODE=positive
NOMINAL_MASS=270
PARENT_MASS=270.0877
57.0699 47.0 
96.9507 93.0 
124.9818 11.0 
130.9384 999.0 
158.9697 573.0 
END IONS

BEGIN IONS
SYNON=[amino(methylsulfanyl)phosphoryl]oxymethane
INCHIKEY=NNKVPIKMPCQWCG-UHFFFAOYSA-N
INCHI=InChI=1S/C2H8NO2PS/c1-5-6(3,4)7-2/h1-2H3,(H2,3,4)
SMILES=COP(=O)(N)SC
INSTRUMENT_TYPE=LC-ESI-QFT
INSTRUMENT=Exploris 240 Orbitrap Thermo Scientific
COLLISION_ENERGY=75 % (nominal)
FORMULA=C2H8NO2PS
PARENT=142.0086
SPLASH=splash10-0006-9300000000-5c453b3867e5bde92d5b
NUM_PEAKS=10
COMPOUND_NAME=Methamidophos
SPECTRUM_ID=MSBNK-Eawag-EQ01128005
ADDUCT=[M+H]+
MS_LEVEL=MS2
PRECURSOR_MZ=142.0086
IONMODE=positive
NOMINAL_MASS=141
PARENT_MASS=141.0013
44.9793 17.0 
46.9681 8.0 
46.995 162.0 
62.0185 36.0 
63.9947 102.0 
78.9943 216.0 
94.0052 999.0 
109.9824 111.0 
124.982 423.0 
142.0089 7.0 
END IONS

BEGIN IONS
SYNON=N,N-dimethylcarbamic acid [2-(dimethylamino)-5,6-dimethyl-4-pyrimidinyl] ester
INCHIKEY=YFGYUFNIOHWBOB-UHFFFAOYSA-N
INCHI=InChI=1S/C11H18N4O2/c1-7-8(2)12-10(14(3)4)13-9(7)17-11(16)15(5)6/h1-6H3
SMILES=n(c(c(C)c1OC(=O)N(C)C)C)c(n1)N(C)C
INSTRUMENT_TYPE=LC-ESI-ITFT
INSTRUMENT=LTQ Orbitrap XL Thermo Scientific
COLLISION_ENERGY=75 % (nominal)
FORMULA=C11H18N4O2
PARENT=239.1503
SPLASH=splash10-00di-9200000000-23830c3be8a488b4d910
NUM_PEAKS=18
COMPOUND_NAME=Pirimicarb
SPECTRUM_ID=MSBNK-Eawag-EA271112
ADDUCT=[M+H]+
MS_LEVEL=MS2
PRECURSOR_MZ=239.1503
IONMODE=positive
NOMINAL_MASS=238
PARENT_MASS=238.1430
56.0131 1.0 
58.0652 2.0 
71.0605 1.0 
72.0445 999.0 
83.0241 23.0 
85.0761 105.0 
109.0761 89.0 
124.0631 7.0 
137.071 45.0 
138.0788 43.0 
139.0867 2.0 
150.1027 28.0 
152.0818 24.0 
156.0526 3.0 
166.0974 2.0 
167.1053 20.0 
180.1125 3.0 
182.129 97.0 
END IONS

BEGIN IONS
SYNON=methyl N-[methyl-[methyl-(1-methylsulfanylethylideneamino)oxycarbonylamino]sulfanylcarbamoyl]oxyethanimidothioate
INCHIKEY=XDOTVMNBCQVZKG-UHFFFAOYSA-N
INCHI=InChI=1S/C10H18N4O4S3/c1-7(19-5)11-17-9(15)13(3)21-14(4)10(16)18-12-8(2)20-6/h1-6H3
SMILES=CC(=NOC(=O)N(C)SN(C)C(=O)ON=C(C)SC)SC
INSTRUMENT_TYPE=LC-ESI-QFT
INSTRUMENT=Exploris 240 Orbitrap Thermo Scientific
COLLISION_ENERGY=60 % (nominal)
FORMULA=C10H18N4O4S3
PARENT=355.0563
SPLASH=splash10-000i-9000000000-64c3da4da2810d36a213
NUM_PEAKS=15
COMPOUND_NAME=Thiodicarb
SPECTRUM_ID=MSBNK-Eawag-EQ01131404
ADDUCT=[M+H]+
MS_LEVEL=MS2
PRECURSOR_MZ=355.0563
IONMODE=positive
NOMINAL_MASS=354
PARENT_MASS=354.0490
56.0495 57.0 
58.0287 5.0 
59.9902 50.0 
60.998 12.0 
61.0106 26.0 
62.0059 136.0 
72.9981 79.0 
74.0058 10.0 
76.0214 8.0 
78.0008 8.0 
78.967 142.0 
80.9826 10.0 
88.0215 999.0 
106.032 7.0 
107.9935 76.0 
END IONS

BEGIN IONS
SYNON=diethoxyphosphinothioylsulfanylmethylsulfanyl-diethoxy-sulfanylidene-lambda5-phosphane
INCHIKEY=RIZMRRKBZQXFOY-UHFFFAOYSA-N
INCHI=InChI=1S/C9H22O4P2S4/c1-5-10-14(16,11-6-2)18-9-19-15(17,12-7-3)13-8-4/h5-9H2,1-4H3
SMILES=CCOP(=S)(OCC)SCSP(=S)(OCC)OCC
INSTRUMENT_TYPE=LC-ESI-QFT
INSTRUMENT=Exploris 240 Orbitrap Thermo Scientific
COLLISION_ENERGY=120 % (nominal)
FORMULA=C9H22O4P2S4
PARENT=384.9949
SPLASH=splash10-01ot-9200000000-342df504d2e7a41c17d5
NUM_PEAKS=6
COMPOUND_NAME=Ethion
SPECTRUM_ID=MSBNK-Eawag-EQ01136007
ADDUCT=[M+H]+
MS_LEVEL=MS2
PRECURSOR_MZ=384.9949
IONMODE=positive
NOMINAL_MASS=384
PARENT_MASS=383.9876
64.9787 364.0 
78.9402 270.0 
96.9508 999.0 
110.9664 35.0 
114.9613 313.0 
128.9767 19.0 
END IONS

BEGIN IONS
SYNON=3-(diethoxyphosphinothioylsulfanylmethyl)-1,2,3-benzotriazin-4-one
INCHIKEY=RQVGAIADHNPSME-UHFFFAOYSA-N
INCHI=InChI=1S/C12H16N3O3PS2/c1-3-17-19(20,18-4-2)21-9-15-12(16)10-7-5-6-8-11(10)13-14-15/h5-8H,3-4,9H2,1-2H3
SMILES=CCOP(=S)(OCC)SCN1C(=O)C2=CC=CC=C2N=N1
INSTRUMENT_TYPE=LC-ESI-QFT
INSTRUMENT=Q Exactive Plus Orbitrap Thermo Scientific
COLLISION_ENERGY=45 (nominal)
FORMULA=C12H16N3O3PS2
PARENT=346.0443
SPLASH=splash10-03dr-1900000000-e7e5be854db4e85fd971
NUM_PEAKS=51
COMPOUND_NAME=Azinphos-ethyl
SPECTRUM_ID=MSBNK-Eawag-EQ365403
ADDUCT=[M+H]+
MS_LEVEL=MS2
PRECURSOR_MZ=346.0443
IONMODE=positive
NOMINAL_MASS=345
PARENT_MASS=345.03707
50.0151 1.0 
51.023 10.0 
53.0386 48.0 
55.0179 2.0 
64.9786 8.0 
67.0543 1.0 
75.0263 1.0 
77.0386 51.0 
78.0338 1.0 
80.9736 1.0 
81.0335 4.0 
94.0414 1.0 
95.0492 187.0 
96.0444 2.0 
96.9509 116.0 
98.9842 14.0 
104.0495 297.0 
105.0336 284.0 
105.0448 115.0 
109.005 1.0 
109.0107 23.0 
114.9614 999.0 
120.0445 11.0 
121.0284 1.0 
121.0649 5.0 
123.0264 4.0 
124.9822 20.0 
126.9437 11.0 
128.977 17.0 
130.0401 33.0 
132.0445 385.0 
132.9721 5.0 
135.9981 1.0 
136.0217 14.0 
137.0057 717.0 
142.9386 310.0 
148.0217 28.0 
150.0551 49.0 
152.9829 21.0 
153.0007 43.0 
154.9715 1.0 
164.0705 2.0 
168.9777 16.0 
170.9489 14.0 
170.97 7.0 
171.0237 4.0 
172.9823 19.0 
182.0095 2.0 
214.9387 29.0 
216.9719 17.0 
232.9493 41.0 
END IONS

BEGIN IONS
SYNON=(3,5-dimethyl-4-methylsulfanyl-phenyl) N-methylcarbamate
INCHIKEY=YFBPRJGDJKVWAH-UHFFFAOYSA-N
INCHI=InChI=1S/C11H15NO2S/c1-7-5-9(14-11(13)12-3)6-8(2)10(7)15-4/h5-6H,1-4H3,(H,12,13)
SMILES=O=C(Oc1cc(c(SC)c(c1)C)C)NC
INSTRUMENT_TYPE=LC-ESI-ITFT
INSTRUMENT=LTQ Orbitrap XL Thermo Scientific
COLLISION_ENERGY=15 % (nominal)
FORMULA=C11H15NO2S
PARENT=226.0896
SPLASH=splash10-014i-0900000000-6a0d00a4d095ad4b111d
NUM_PEAKS=8
COMPOUND_NAME=Methiocarb
SPECTRUM_ID=MSBNK-Eawag-EA293708
ADDUCT=[M+H]+
MS_LEVEL=MS2
PRECURSOR_MZ=226.0896
IONMODE=positive
NOMINAL_MASS=225
PARENT_MASS=225.0823
91.0545 1.0 
93.07 1.0 
121.0649 130.0 
122.0725 7.0 
123.0804 1.0 
154.0443 1.0 
169.0682 999.0 
226.0897 76.0 
END IONS

BEGIN IONS
SYNON=2,2,2-trichloro-1-dimethoxyphosphorylethanol
INCHIKEY=NFACJZMKEDPNKN-UHFFFAOYSA-N
INCHI=InChI=1S/C4H8Cl3O4P/c1-10-12(9,11-2)3(8)4(5,6)7/h3,8H,1-2H3
SMILES=COP(=O)(C(C(Cl)(Cl)Cl)O)OC
INSTRUMENT_TYPE=LC-ESI-QFT
INSTRUMENT=Exploris 240 Orbitrap Thermo Scientific
COLLISION_ENERGY=30 % (nominal)
FORMULA=C4H8Cl3O4P
PARENT=256.9299
SPLASH=splash10-056r-0930000000-4a5ff3d275b23a64af67
NUM_PEAKS=8
COMPOUND_NAME=Trichlorfon
SPECTRUM_ID=MSBNK-Eawag-EQ01131802
ADDUCT=[M+H]+
MS_LEVEL=MS2
PRECURSOR_MZ=256.9299
IONMODE=positive
NOMINAL_MASS=256
PARENT_MASS=255.9226
78.9944 21.0 
93.0098 14.0 
109.0049 393.0 
111.0203 6.0 
127.0154 999.0 
144.9814 40.0 
220.9532 365.0 
256.9299 140.0 
END IONS

BEGIN IONS
SYNON=(3,5-dimethyl-4-methylsulfanyl-phenyl) N-methylcarbamate
INCHIKEY=YFBPRJGDJKVWAH-UHFFFAOYSA-N
INCHI=InChI=1S/C11H15NO2S/c1-7-5-9(14-11(13)12-3)6-8(2)10(7)15-4/h5-6H,1-4H3,(H,12,13)
SMILES=O=C(Oc1cc(c(SC)c(c1)C)C)NC
INSTRUMENT_TYPE=LC-ESI-ITFT
INSTRUMENT=LTQ Orbitrap XL Thermo Scientific
COLLISION_ENERGY=90 % (nominal)
FORMULA=C11H15NO2S
PARENT=226.0896
SPLASH=splash10-05fu-5900000000-472c671833f75881aae0
NUM_PEAKS=31
COMPOUND_NAME=Methiocarb
SPECTRUM_ID=MSBNK-Eawag-EA293707
ADDUCT=[M+H]+
MS_LEVEL=MS2
PRECURSOR_MZ=226.0896
IONMODE=positive
NOMINAL_MASS=225
PARENT_MASS=225.0823
51.0228 4.0 
53.0386 49.0 
58.029 7.0 
65.0386 9.0 
67.0543 20.0 
77.0386 599.0 
78.0466 23.0 
79.0543 73.0 
81.0335 8.0 
91.0543 738.0 
92.0622 5.0 
93.0699 516.0 
94.0777 25.0 
95.0492 45.0 
95.0853 4.0 
103.0542 42.0 
104.0621 26.0 
105.0447 275.0 
107.0492 971.0 
108.0569 10.0 
109.0647 15.0 
111.0263 16.0 
120.0573 2.0 
121.0649 999.0 
122.0726 965.0 
123.0807 12.0 
125.0414 9.0 
126.0497 11.0 
139.0215 10.0 
153.036 9.0 
154.0447 66.0 
END IONS

BEGIN IONS
SYNON=N-methylcarbamic acid 1-naphthalenyl ester
INCHIKEY=CVXBEEMKQHEXEN-UHFFFAOYSA-N
INCHI=InChI=1S/C12H11NO2/c1-13-12(14)15-11-8-4-6-9-5-2-3-7-10(9)11/h2-8H,1H3,(H,13,14)
SMILES=c12c(OC(NC)=O)cccc1cccc2
INSTRUMENT_TYPE=LC-ESI-QFT
INSTRUMENT=Q Exactive Orbitrap Thermo Scientific
COLLISION_ENERGY=75 (nominal)
FORMULA=C12H11NO2
PARENT=202.0863
SPLASH=splash10-00kb-0900000000-24ae3d7e749a3ac3ef46
NUM_PEAKS=14
COMPOUND_NAME=Carbaryl
SPECTRUM_ID=MSBNK-Eawag-EQ303805
ADDUCT=[M+H]+
MS_LEVEL=MS2
PRECURSOR_MZ=202.0863
IONMODE=positive
NOMINAL_MASS=201
PARENT_MASS=201.07898
58.0287 18.0 
77.0385 2.0 
91.0542 33.0 
95.0491 4.0 
103.0542 25.0 
115.0541 114.0 
116.062 3.0 
117.0698 528.0 
126.0464 2.0 
127.0541 42.0 
144.0571 6.0 
145.0648 999.0 
155.0603 345.0 
156.0572 2.0 
END IONS

BEGIN IONS
SYNON=N-[ethoxy-(3-methyl-4-methylsulfanylphenoxy)phosphoryl]propan-2-amine
INCHIKEY=ZCJPOPBZHLUFHF-UHFFFAOYSA-N
INCHI=InChI=1S/C13H22NO3PS/c1-6-16-18(15,14-10(2)3)17-12-7-8-13(19-5)11(4)9-12/h7-10H,6H2,1-5H3,(H,14,15)
SMILES=CCOP(=O)(NC(C)C)OC1=CC(=C(C=C1)SC)C
INSTRUMENT_TYPE=LC-ESI-QFT
INSTRUMENT=Exploris 240 Orbitrap Thermo Scientific
COLLISION_ENERGY=15 % (nominal)
FORMULA=C13H22NO3PS
PARENT=304.1131
SPLASH=splash10-0udi-0019000000-afbdcefe7c89f7ee7f51
NUM_PEAKS=5
COMPOUND_NAME=Fenamiphos
SPECTRUM_ID=MSBNK-Eawag-EQ01124701
ADDUCT=[M+H]+
MS_LEVEL=MS2
PRECURSOR_MZ=304.1131
IONMODE=positive
NOMINAL_MASS=303
PARENT_MASS=303.1058
60.0807 4.0 
245.0401 6.0 
262.0661 64.0 
276.0819 81.0 
304.113 999.0 
END IONS

BEGIN IONS
SYNON=ethyl 2-dimethoxyphosphinothioylsulfanyl-2-phenylacetate
INCHIKEY=XAMUDJHXFNRLCY-UHFFFAOYSA-N
INCHI=InChI=1S/C12H17O4PS2/c1-4-16-12(13)11(10-8-6-5-7-9-10)19-17(18,14-2)15-3/h5-9,11H,4H2,1-3H3
SMILES=CCOC(=O)C(C1=CC=CC=C1)SP(=S)(OC)OC
INSTRUMENT_TYPE=LC-ESI-QFT
INSTRUMENT=Exploris 240 Orbitrap Thermo Scientific
COLLISION_ENERGY=30 % (nominal)
FORMULA=C12H17O4PS2
PARENT=321.0379
SPLASH=splash10-01w0-1910000000-4f790d45c895d6e073d2
NUM_PEAKS=11
COMPOUND_NAME=Phenthoate
SPECTRUM_ID=MSBNK-Eawag-EQ01129202
ADDUCT=[M+H]+
MS_LEVEL=MS2
PRECURSOR_MZ=321.0379
IONMODE=positive
NOMINAL_MASS=320
PARENT_MASS=320.0306
79.0545 32.0 
91.0542 590.0 
107.0491 293.0 
124.982 830.0 
135.044 926.0 
135.0803 607.0 
142.9925 175.0 
151.0213 71.0 
157.0086 44.0 
163.0753 999.0 
247.001 666.0 
END IONS

BEGIN IONS
SYNON=ethyl 3-[[(2,2-dimethyl-3H-1-benzofuran-7-yl)oxycarbonyl-methylamino]sulfanyl-propan-2-ylamino]propanoate
INCHIKEY=FYZBOYWSHKHDMT-UHFFFAOYSA-N
INCHI=InChI=1S/C20H30N2O5S/c1-7-25-17(23)11-12-22(14(2)3)28-21(6)19(24)26-16-10-8-9-15-13-20(4,5)27-18(15)16/h8-10,14H,7,11-13H2,1-6H3
SMILES=CCOC(=O)CCN(C(C)C)SN(C)C(=O)OC1=CC=CC2=C1OC(C2)(C)C
INSTRUMENT_TYPE=LC-ESI-QFT
INSTRUMENT=Exploris 240 Orbitrap Thermo Scientific
COLLISION_ENERGY=90 % (nominal)
FORMULA=C20H30N2O5S
PARENT=411.1948
SPLASH=splash10-060r-6900000000-51744034942c6b6d2675
NUM_PEAKS=43
COMPOUND_NAME=Benfuracarb
SPECTRUM_ID=MSBNK-Eawag-EQ01120506
ADDUCT=[M+H]+
MS_LEVEL=MS2
PRECURSOR_MZ=411.1948
IONMODE=positive
NOMINAL_MASS=410
PARENT_MASS=410.1875
53.0387 54.0 
55.0179 164.0 
56.0496 100.0 
58.0288 139.0 
58.9951 50.0 
59.9904 38.0 
67.0178 80.0 
70.0652 233.0 
73.0285 256.0 
74.0059 778.0 
78.0009 32.0 
79.0543 90.0 
81.0335 107.0 
81.07 96.0 
84.9743 532.0 
90.0372 185.0 
91.0544 128.0 
97.0107 471.0 
102.001 185.0 
103.0545 25.0 
105.0698 176.0 
109.0284 999.0 
109.0652 94.0 
111.0807 36.0 
115.0542 323.0 
116.0621 607.0 
119.0496 44.0 
120.0569 44.0 
123.0443 115.0 
125.0058 287.0 
133.0649 93.0 
134.0186 63.0 
139.0212 32.0 
143.0493 65.0 
144.0572 512.0 
147.044 207.0 
149.0419 61.0 
153.0372 59.0 
161.0597 103.0 
162.0677 410.0 
167.0524 41.0 
177.0371 76.0 
195.0475 44.0 
END IONS

BEGIN IONS
SYNON=dimethoxy-sulfanylidene-(3,5,6-trichloropyridin-2-yl)oxy-{5}-phosphane
INCHIKEY=HRBKVYFZANMGRE-UHFFFAOYSA-N
INCHI=InChI=1S/C7H7Cl3NO3PS/c1-12-15(16,13-2)14-7-5(9)3-4(8)6(10)11-7/h3H,1-2H3
SMILES=Clc1c(OP(=S)(OC)OC)nc(Cl)c(Cl)c1
INSTRUMENT_TYPE=LC-ESI-ITFT
INSTRUMENT=LTQ Orbitrap XL Thermo Scientific
COLLISION_ENERGY=60 % (nominal)
FORMULA=C7H7Cl3NO3PS
PARENT=321.9023
SPLASH=splash10-00fu-1910000000-dfa6fc5471e7c2402fe0
NUM_PEAKS=17
COMPOUND_NAME=Chlorpyrifos-methyl
SPECTRUM_ID=MSBNK-Eawag-EA295111
ADDUCT=[M+H]+
MS_LEVEL=MS2
PRECURSOR_MZ=321.9023
IONMODE=positive
NOMINAL_MASS=321
PARENT_MASS=320.8950
62.0184 24.0 
78.9943 267.0 
109.0048 18.0 
110.9661 10.0 
124.982 999.0 
127.0154 249.0 
142.9925 885.0 
150.9173 8.0 
167.9168 5.0 
176.9199 18.0 
179.9168 12.0 
197.9273 28.0 
207.9387 6.0 
211.8888 111.0 
229.8994 72.0 
274.8514 7.0 
289.8763 63.0 
END IONS

BEGIN IONS
SYNON=diethoxyphosphinothioylsulfanylmethylsulfanyl-diethoxy-sulfanylidene-lambda5-phosphane
INCHIKEY=RIZMRRKBZQXFOY-UHFFFAOYSA-N
INCHI=InChI=1S/C9H22O4P2S4/c1-5-10-14(16,11-6-2)18-9-19-15(17,12-7-3)13-8-4/h5-9H2,1-4H3
SMILES=CCOP(=S)(OCC)SCSP(=S)(OCC)OCC
INSTRUMENT_TYPE=LC-ESI-QFT
INSTRUMENT=Exploris 240 Orbitrap Thermo Scientific
COLLISION_ENERGY=90 % (nominal)
FORMULA=C9H22O4P2S4
PARENT=384.9949
SPLASH=splash10-0002-9400000000-02d53ee7602f67007746
NUM_PEAKS=10
COMPOUND_NAME=Ethion
SPECTRUM_ID=MSBNK-Eawag-EQ01136006
ADDUCT=[M+H]+
MS_LEVEL=MS2
PRECURSOR_MZ=384.9949
IONMODE=positive
NOMINAL_MASS=384
PARENT_MASS=383.9876
64.9787 69.0 
78.9401 56.0 
78.9669 12.0 
96.9508 999.0 
110.9666 39.0 
114.9614 332.0 
126.9437 9.0 
128.9229 26.0 
128.9771 22.0 
142.9385 93.0 
END IONS

BEGIN IONS
SYNON=3-(dimethoxyphosphinothioylsulfanylmethyl)-1,2,3-benzotriazin-4-one
INCHIKEY=CJJOSEISRRTUQB-UHFFFAOYSA-N
INCHI=InChI=1S/C10H12N3O3PS2/c1-15-17(18,16-2)19-7-13-10(14)8-5-3-4-6-9(8)11-12-13/h3-6H,7H2,1-2H3
SMILES=COP(=S)(OC)SCN1C(=O)C2=CC=CC=C2N=N1
INSTRUMENT_TYPE=LC-ESI-QFT
INSTRUMENT=Q Exactive Plus Orbitrap Thermo Scientific
COLLISION_ENERGY=120 (nominal)
FORMULA=C10H12N3O3PS2
PARENT=318.013
SPLASH=splash10-0udi-9100000000-4f01682d659e9f4fcf0f
NUM_PEAKS=48
COMPOUND_NAME=Azinphos-methyl
SPECTRUM_ID=MSBNK-Eawag-EQ365507
ADDUCT=[M+H]+
MS_LEVEL=MS2
PRECURSOR_MZ=318.013
IONMODE=positive
NOMINAL_MASS=317
PARENT_MASS=317.00577
50.0152 266.0 
51.023 999.0 
52.0183 3.0 
53.0023 11.0 
53.0387 114.0 
55.0179 8.0 
59.9665 22.0 
62.0185 29.0 
62.9453 3.0 
62.9995 24.0 
63.023 20.0 
64.0308 8.0 
64.9788 3.0 
65.0023 15.0 
65.0386 19.0 
66.0464 10.0 
67.0543 10.0 
68.9794 4.0 
69.9872 3.0 
74.0151 14.0 
75.023 107.0 
76.0182 46.0 
76.0307 9.0 
77.0386 307.0 
78.0339 16.0 
78.0464 9.0 
78.9944 179.0 
81.0101 3.0 
81.0336 11.0 
81.9872 2.0 
92.0258 14.0 
92.037 3.0 
93.0101 27.0 
94.0413 4.0 
95.0493 383.0 
96.0029 25.0 
96.0446 9.0 
97.005 10.0 
102.034 38.0 
104.0496 50.0 
105.0449 232.0 
108.0029 12.0 
109.0108 12.0 
120.0445 8.0 
127.9928 3.0 
130.0402 20.0 
142.9929 18.0 
151.9929 15.0 
END IONS

BEGIN IONS
SYNON=2-(dimethoxyphosphinothioylthio)-N-methylacetamide
INCHIKEY=MCWXGJITAZMZEV-UHFFFAOYSA-N
INCHI=InChI=1S/C5H12NO3PS2/c1-6-5(7)4-12-10(11,8-2)9-3/h4H2,1-3H3,(H,6,7)
SMILES=P(SCC(NC)=O)(OC)(OC)=S
INSTRUMENT_TYPE=LC-ESI-ITFT
INSTRUMENT=LTQ Orbitrap XL Thermo Scientific
COLLISION_ENERGY=75 % (nominal)
FORMULA=C5H12NO3PS2
PARENT=230.0069
SPLASH=splash10-006x-2900000000-8c48932ee744d594a8df
NUM_PEAKS=27
COMPOUND_NAME=Dimethoate
SPECTRUM_ID=MSBNK-Eawag-EA276106
ADDUCT=[M+H]+
MS_LEVEL=MS2
PRECURSOR_MZ=230.0069
IONMODE=positive
NOMINAL_MASS=229
PARENT_MASS=228.9996
58.9951 4.0 
61.0107 11.0 
62.0185 18.0 
62.9994 9.0 
76.0216 10.0 
78.0104 2.0 
78.9944 278.0 
86.0061 2.0 
88.0216 64.0 
92.026 6.0 
93.0101 131.0 
94.9718 3.0 
97.0049 3.0 
104.0166 11.0 
109.0048 5.0 
110.9665 41.0 
111.0204 2.0 
119.9938 5.0 
123.9981 47.0 
124.982 999.0 
127.0156 24.0 
128.977 50.0 
142.9926 875.0 
155.97 12.0 
156.9541 87.0 
170.9702 15.0 
230.007 1.0 
END IONS

BEGIN IONS
SYNON=(2,2-dimethyl-3H-1-benzofuran-7-yl) N-methylcarbamate
INCHIKEY=DUEPRVBVGDRKAG-UHFFFAOYSA-N
INCHI=InChI=1S/C12H15NO3/c1-12(2)7-8-5-4-6-9(10(8)16-12)15-11(14)13-3/h4-6H,7H2,1-3H3,(H,13,14)
SMILES=CC2(C)CC1=C(C(=CC=C1)OC(NC)=O)O2
INSTRUMENT_TYPE=LC-ESI-QFT
INSTRUMENT=Q Exactive Orbitrap Thermo Scientific
COLLISION_ENERGY=75 (nominal)
FORMULA=C12H15NO3
PARENT=222.1125
SPLASH=splash10-00di-1900000000-5cd3bdfd63ba91812779
NUM_PEAKS=29
COMPOUND_NAME=Carbofuran
SPECTRUM_ID=MSBNK-Eawag-EQ304005
ADDUCT=[M+H]+
MS_LEVEL=MS2
PRECURSOR_MZ=222.1125
IONMODE=positive
NOMINAL_MASS=221
PARENT_MASS=221.10519
51.0229 2.0 
53.0387 1.0 
55.0542 5.0 
58.0288 24.0 
65.0385 7.0 
67.0542 21.0 
77.0384 5.0 
79.0542 2.0 
81.0334 2.0 
91.0541 83.0 
93.0335 2.0 
95.0491 60.0 
103.0541 2.0 
105.0334 12.0 
105.0447 3.0 
107.0491 6.0 
109.0283 5.0 
109.0648 2.0 
110.0361 2.0 
111.0439 14.0 
117.0697 4.0 
119.0491 12.0 
119.0855 27.0 
123.0439 999.0 
129.0697 1.0 
132.0569 2.0 
137.0596 50.0 
147.0803 13.0 
165.0908 21.0 
END IONS

BEGIN IONS
SYNON=2,2-bis(chloranyl)ethenyl dimethyl phosphate
INCHIKEY=OEBRKCOSUFCWJD-UHFFFAOYSA-N
INCHI=InChI=1S/C4H7Cl2O4P/c1-8-11(7,9-2)10-3-4(5)6/h3H,1-2H3
SMILES=O=P(O\C=C(/Cl)Cl)(OC)OC
INSTRUMENT_TYPE=LC-ESI-QFT
INSTRUMENT=Q Exactive Orbitrap Thermo Scientific
COLLISION_ENERGY=30 (nominal)
FORMULA=C4H7Cl2O4P
PARENT=220.9532
SPLASH=splash10-004i-0930000000-5337a3d357153a9b46f2
NUM_PEAKS=12
COMPOUND_NAME=Dichlorvos
SPECTRUM_ID=MSBNK-Eawag-EQ304702
ADDUCT=[M+H]+
MS_LEVEL=MS2
PRECURSOR_MZ=220.9532
IONMODE=positive
NOMINAL_MASS=220
PARENT_MASS=219.94590
76.9788 5.0 
78.9942 17.0 
94.9449 1.0 
94.9891 2.0 
96.9604 5.0 
108.9605 1.0 
109.0048 26.0 
112.9997 4.0 
127.0154 999.0 
144.9815 83.0 
188.9272 1.0 
220.9531 458.0 
END IONS

BEGIN IONS
SYNON=3-(dimethoxyphosphinothioylsulfanylmethyl)-1,2,3-benzotriazin-4-one
INCHIKEY=CJJOSEISRRTUQB-UHFFFAOYSA-N
INCHI=InChI=1S/C10H12N3O3PS2/c1-15-17(18,16-2)19-7-13-10(14)8-5-3-4-6-9(8)11-12-13/h3-6H,7H2,1-2H3
SMILES=COP(=S)(OC)SCN1C(=O)C2=CC=CC=C2N=N1
INSTRUMENT_TYPE=LC-ESI-QFT
INSTRUMENT=Q Exactive Plus Orbitrap Thermo Scientific
COLLISION_ENERGY=30 (nominal)
FORMULA=C10H12N3O3PS2
PARENT=318.013
SPLASH=splash10-000x-0900000000-a51b01bd656d9f20c8f6
NUM_PEAKS=30
COMPOUND_NAME=Azinphos-methyl
SPECTRUM_ID=MSBNK-Eawag-EQ365502
ADDUCT=[M+H]+
MS_LEVEL=MS2
PRECURSOR_MZ=318.013
IONMODE=positive
NOMINAL_MASS=317
PARENT_MASS=317.00577
51.0229 1.0 
53.0386 14.0 
62.0186 1.0 
77.0385 11.0 
78.9943 14.0 
81.0336 1.0 
93.0101 15.0 
95.0492 49.0 
99.0442 1.0 
104.0495 209.0 
105.0336 116.0 
105.0448 32.0 
110.9663 3.0 
120.0446 23.0 
124.9822 151.0 
130.0402 6.0 
132.0445 871.0 
135.0442 12.0 
137.0057 1.0 
142.9928 999.0 
144.9968 1.0 
150.0551 133.0 
152.983 1.0 
157.0084 21.0 
160.0506 18.0 
164.0708 10.0 
167.0163 169.0 
170.9699 26.0 
182.9935 45.0 
260.9805 19.0 
END IONS

BEGIN IONS
SYNON=(3,5-dimethyl-4-methylsulfanyl-phenyl) N-methylcarbamate
INCHIKEY=YFBPRJGDJKVWAH-UHFFFAOYSA-N
INCHI=InChI=1S/C11H15NO2S/c1-7-5-9(14-11(13)12-3)6-8(2)10(7)15-4/h5-6H,1-4H3,(H,12,13)
SMILES=O=C(Oc1cc(c(SC)c(c1)C)C)NC
INSTRUMENT_TYPE=LC-ESI-ITFT
INSTRUMENT=LTQ Orbitrap XL Thermo Scientific
COLLISION_ENERGY=75 % (nominal)
FORMULA=C11H15NO2S
PARENT=226.0896
SPLASH=splash10-00di-3900000000-e2757f4ec9419d650f23
NUM_PEAKS=33
COMPOUND_NAME=Methiocarb
SPECTRUM_ID=MSBNK-Eawag-EA293712
ADDUCT=[M+H]+
MS_LEVEL=MS2
PRECURSOR_MZ=226.0896
IONMODE=positive
NOMINAL_MASS=225
PARENT_MASS=225.0823
53.0386 12.0 
58.0287 2.0 
65.0386 2.0 
67.0543 8.0 
77.0387 179.0 
78.0465 4.0 
79.0543 12.0 
81.0335 2.0 
91.0543 279.0 
93.07 343.0 
94.0413 1.0 
94.0778 7.0 
95.0492 13.0 
95.0856 2.0 
103.0543 15.0 
104.0622 4.0 
105.0448 73.0 
105.07 4.0 
106.0415 1.0 
107.0493 225.0 
108.0569 1.0 
109.0648 10.0 
111.0263 3.0 
119.0602 1.0 
121.0648 999.0 
122.0726 730.0 
123.0805 15.0 
125.0419 4.0 
126.0499 3.0 
139.0216 2.0 
153.037 10.0 
154.0447 58.0 
169.0681 7.0 
END IONS

BEGIN IONS
SYNON=N,N-dimethylcarbamic acid [2-(dimethylamino)-5,6-dimethyl-4-pyrimidinyl] ester
INCHIKEY=YFGYUFNIOHWBOB-UHFFFAOYSA-N
INCHI=InChI=1S/C11H18N4O2/c1-7-8(2)12-10(14(3)4)13-9(7)17-11(16)15(5)6/h1-6H3
SMILES=n(c(c(C)c1OC(=O)N(C)C)C)c(n1)N(C)C
INSTRUMENT_TYPE=LC-ESI-ITFT
INSTRUMENT=LTQ Orbitrap XL Thermo Scientific
COLLISION_ENERGY=60 % (nominal)
FORMULA=C11H18N4O2
PARENT=239.1503
SPLASH=splash10-00di-9500000000-9d5ffcf856d01aa0ff8d
NUM_PEAKS=17
COMPOUND_NAME=Pirimicarb
SPECTRUM_ID=MSBNK-Eawag-EA271111
ADDUCT=[M+H]+
MS_LEVEL=MS2
PRECURSOR_MZ=239.1503
IONMODE=positive
NOMINAL_MASS=238
PARENT_MASS=238.1430
56.0131 1.0 
58.0651 1.0 
72.0444 999.0 
83.024 17.0 
85.076 84.0 
109.076 45.0 
137.0709 62.0 
138.0787 20.0 
150.1025 41.0 
152.0818 7.0 
166.0971 2.0 
167.1053 25.0 
168.1135 2.0 
180.1131 3.0 
182.1289 414.0 
195.1601 14.0 
239.1514 3.0 
END IONS

BEGIN IONS
SYNON=(1E)-N-(methylcarbamoyloxy)ethanimidothioic acid methyl ester
INCHIKEY=UHXUZOCRWCRNSJ-QPJJXVBHSA-N
INCHI=InChI=1S/C5H10N2O2S/c1-4(10-3)7-9-5(8)6-2/h1-3H3,(H,6,8)/b7-4+
SMILES=C/C(=N\OC(=O)NC)SC
INSTRUMENT_TYPE=LC-ESI-ITFT
INSTRUMENT=LTQ Orbitrap XL Thermo Scientific
COLLISION_ENERGY=15 % (nominal)
FORMULA=C5H10N2O2S
PARENT=163.0536
SPLASH=splash10-052r-9500000000-bc37fefdbd44b78215b6
NUM_PEAKS=9
COMPOUND_NAME=Methomyl
SPECTRUM_ID=MSBNK-Eawag-EA294202
ADDUCT=[M+H]+
MS_LEVEL=MS2
PRECURSOR_MZ=163.0536
IONMODE=positive
NOMINAL_MASS=162
PARENT_MASS=162.0463
56.0496 3.0 
58.0287 29.0 
65.0055 196.0 
88.0216 999.0 
89.0597 17.0 
106.0321 725.0 
107.0701 18.0 
122.0269 43.0 
163.0541 23.0 
END IONS

BEGIN IONS
SYNON=methyl N-[methyl-[methyl-(1-methylsulfanylethylideneamino)oxycarbonylamino]sulfanylcarbamoyl]oxyethanimidothioate
INCHIKEY=XDOTVMNBCQVZKG-UHFFFAOYSA-N
INCHI=InChI=1S/C10H18N4O4S3/c1-7(19-5)11-17-9(15)13(3)21-14(4)10(16)18-12-8(2)20-6/h1-6H3
SMILES=CC(=NOC(=O)N(C)SN(C)C(=O)ON=C(C)SC)SC
INSTRUMENT_TYPE=LC-ESI-QFT
INSTRUMENT=Exploris 240 Orbitrap Thermo Scientific
COLLISION_ENERGY=45 % (nominal)
FORMULA=C10H18N4O4S3
PARENT=355.0563
SPLASH=splash10-000i-9100000000-b3971225701afb85c477
NUM_PEAKS=13
COMPOUND_NAME=Thiodicarb
SPECTRUM_ID=MSBNK-Eawag-EQ01131403
ADDUCT=[M+H]+
MS_LEVEL=MS2
PRECURSOR_MZ=355.0563
IONMODE=positive
NOMINAL_MASS=354
PARENT_MASS=354.0490
56.0495 25.0 
59.9903 28.0 
60.9981 4.0 
61.0106 15.0 
62.0059 72.0 
72.9981 22.0 
74.0058 5.0 
78.0007 5.0 
78.9671 112.0 
80.9825 5.0 
88.0215 999.0 
106.0323 11.0 
107.9936 201.0 
END IONS

BEGIN IONS
SYNON=3-(diethoxyphosphinothioylsulfanylmethyl)-1,2,3-benzotriazin-4-one
INCHIKEY=RQVGAIADHNPSME-UHFFFAOYSA-N
INCHI=InChI=1S/C12H16N3O3PS2/c1-3-17-19(20,18-4-2)21-9-15-12(16)10-7-5-6-8-11(10)13-14-15/h5-8H,3-4,9H2,1-2H3
SMILES=CCOP(=S)(OCC)SCN1C(=O)C2=CC=CC=C2N=N1
INSTRUMENT_TYPE=LC-ESI-QFT
INSTRUMENT=Q Exactive Plus Orbitrap Thermo Scientific
COLLISION_ENERGY=75 (nominal)
FORMULA=C12H16N3O3PS2
PARENT=346.0443
SPLASH=splash10-08fs-4900000000-d02ced86d836930fc798
NUM_PEAKS=48
COMPOUND_NAME=Azinphos-ethyl
SPECTRUM_ID=MSBNK-Eawag-EQ365405
ADDUCT=[M+H]+
MS_LEVEL=MS2
PRECURSOR_MZ=346.0443
IONMODE=positive
NOMINAL_MASS=345
PARENT_MASS=345.03707
50.0152 20.0 
51.023 82.0 
53.0386 111.0 
55.0179 7.0 
59.9663 1.0 
64.9788 55.0 
65.0387 25.0 
67.0543 6.0 
68.9794 2.0 
75.0229 13.0 
77.0386 181.0 
78.0338 6.0 
78.0464 2.0 
78.9402 17.0 
81.0336 14.0 
92.0258 5.0 
94.0415 5.0 
95.0492 395.0 
96.0444 7.0 
96.9509 126.0 
98.9842 9.0 
102.0339 23.0 
103.0543 5.0 
104.0495 101.0 
105.0336 102.0 
105.0448 231.0 
108.003 9.0 
109.0108 368.0 
110.9667 2.0 
114.9614 999.0 
120.0444 14.0 
121.0107 5.0 
126.9437 1.0 
128.9771 15.0 
130.0401 55.0 
132.972 6.0 
135.9979 25.0 
137.0057 272.0 
142.9387 33.0 
148.0218 1.0 
150.0552 1.0 
152.9829 13.0 
153.0006 25.0 
154.9718 11.0 
167.97 2.0 
168.9778 2.0 
170.9488 11.0 
172.9825 1.0 
END IONS

BEGIN IONS
SYNON=diethoxy-(4-nitrophenoxy)-sulfanylidene-$l^{5}-phosphane
INCHIKEY=LCCNCVORNKJIRZ-UHFFFAOYSA-N
INCHI=InChI=1S/C10H14NO5PS/c1-3-14-17(18,15-4-2)16-10-7-5-9(6-8-10)11(12)13/h5-8H,3-4H2,1-2H3
SMILES=S=P(Oc1ccc(cc1)[N+]([O-])=O)(OCC)OCC
INSTRUMENT_TYPE=LC-ESI-QFT
INSTRUMENT=Q Exactive Orbitrap Thermo Scientific
COLLISION_ENERGY=60 (nominal)
FORMULA=C10H14NO5PS
PARENT=292.0403
SPLASH=splash10-01vo-2910000000-4a40f241595d8b5628d0
NUM_PEAKS=67
COMPOUND_NAME=Parathion
SPECTRUM_ID=MSBNK-Eawag-EQ311504
ADDUCT=[M+H]+
MS_LEVEL=MS2
PRECURSOR_MZ=292.0403
IONMODE=positive
NOMINAL_MASS=291
PARENT_MASS=291.03303
64.9786 13.0 
65.0385 19.0 
66.0463 12.0 
75.0228 9.0 
76.0304 1.0 
78.0338 8.0 
79.0176 1.0 
79.0543 1.0 
80.0495 1.0 
80.9734 1.0 
82.0412 1.0 
84.0028 2.0 
92.0256 9.0 
92.0494 11.0 
93.0332 4.0 
94.0412 999.0 
96.0027 2.0 
96.9505 8.0 
97.0106 7.0 
98.0057 2.0 
98.0185 5.0 
98.984 32.0 
105.0699 5.0 
107.0493 2.0 
108.0028 2.0 
108.0444 2.0 
109.0104 16.0 
109.0284 6.0 
110.0183 596.0 
111.0439 15.0 
114.9612 736.0 
120.0569 2.0 
121.0395 19.0 
122.0235 2.0 
123.0313 673.0 
123.9976 13.0 
125.0054 63.0 
126.0132 41.0 
127.0211 7.0 
128.002 1.0 
132.9717 10.0 
137.0166 2.0 
138.0008 18.0 
139.0085 71.0 
140.034 529.0 
150.0296 22.0 
153.9956 33.0 
154.9713 11.0 
155.9975 13.0 
156.0112 223.0 
170.9662 3.0 
171.974 170.0 
174.0075 184.0 
184.9875 5.0 
187.969 12.0 
188.9769 31.0 
189.9846 309.0 
198.9724 2.0 
204.9719 14.0 
205.9797 30.0 
216.9833 7.0 
217.967 11.0 
218.9748 79.0 
220.0004 50.0 
221.9746 9.0 
235.9775 438.0 
253.9879 28.0 
END IONS

BEGIN IONS
SYNON=2-(dimethoxyphosphinothioylthio)-N-methylacetamide
INCHIKEY=MCWXGJITAZMZEV-UHFFFAOYSA-N
INCHI=InChI=1S/C5H12NO3PS2/c1-6-5(7)4-12-10(11,8-2)9-3/h4H2,1-3H3,(H,6,7)
SMILES=P(SCC(NC)=O)(OC)(OC)=S
INSTRUMENT_TYPE=LC-ESI-ITFT
INSTRUMENT=LTQ Orbitrap XL Thermo Scientific
COLLISION_ENERGY=30 % (nominal)
FORMULA=C5H12NO3PS2
PARENT=230.0069
SPLASH=splash10-00di-0900000000-1f764d5f5529f83dac07
NUM_PEAKS=23
COMPOUND_NAME=Dimethoate
SPECTRUM_ID=MSBNK-Eawag-EA276103
ADDUCT=[M+H]+
MS_LEVEL=MS2
PRECURSOR_MZ=230.0069
IONMODE=positive
NOMINAL_MASS=229
PARENT_MASS=228.9996
58.9948 1.0 
61.0107 14.0 
78.9943 10.0 
88.0215 292.0 
93.0099 4.0 
104.0162 4.0 
109.0045 3.0 
110.9665 8.0 
119.9938 13.0 
123.9978 6.0 
124.982 673.0 
127.0153 4.0 
128.9768 3.0 
140.9593 5.0 
142.9926 429.0 
155.9698 6.0 
156.9542 69.0 
158.9697 9.0 
169.9868 2.0 
170.9697 999.0 
197.9807 86.0 
198.9646 813.0 
230.0068 16.0 
END IONS

BEGIN IONS
SYNON=N-[ethoxy-(3-methyl-4-methylsulfanylphenoxy)phosphoryl]propan-2-amine
INCHIKEY=ZCJPOPBZHLUFHF-UHFFFAOYSA-N
INCHI=InChI=1S/C13H22NO3PS/c1-6-16-18(15,14-10(2)3)17-12-7-8-13(19-5)11(4)9-12/h7-10H,6H2,1-5H3,(H,14,15)
SMILES=CCOP(=O)(NC(C)C)OC1=CC(=C(C=C1)SC)C
INSTRUMENT_TYPE=LC-ESI-QFT
INSTRUMENT=Exploris 240 Orbitrap Thermo Scientific
COLLISION_ENERGY=30 % (nominal)
FORMULA=C13H22NO3PS
PARENT=304.1131
SPLASH=splash10-00o0-0091000000-8e35dd7add5fd1243921
NUM_PEAKS=8
COMPOUND_NAME=Fenamiphos
SPECTRUM_ID=MSBNK-Eawag-EQ01124702
ADDUCT=[M+H]+
MS_LEVEL=MS2
PRECURSOR_MZ=304.1131
IONMODE=positive
NOMINAL_MASS=303
PARENT_MASS=303.1058
60.0807 200.0 
155.052 16.0 
217.0082 864.0 
234.0347 999.0 
245.0393 80.0 
262.066 281.0 
276.0817 707.0 
304.113 403.0 
END IONS

BEGIN IONS
SYNON=diethoxy-sulfanylidene-(3,5,6-trichloropyridin-2-yl)oxy-{5}-phosphane
INCHIKEY=SBPBAQFWLVIOKP-UHFFFAOYSA-N
INCHI=InChI=1S/C9H11Cl3NO3PS/c1-3-14-17(18,15-4-2)16-9-7(11)5-6(10)8(12)13-9/h5H,3-4H2,1-2H3
SMILES=Clc1c(OP(=S)(OCC)OCC)nc(Cl)c(Cl)c1
INSTRUMENT_TYPE=LC-ESI-ITFT
INSTRUMENT=LTQ Orbitrap XL Thermo Scientific
COLLISION_ENERGY=45 % (nominal)
FORMULA=C9H11Cl3NO3PS
PARENT=349.9336
SPLASH=splash10-01ot-2910000000-ae08635e79dc0112ef17
NUM_PEAKS=19
COMPOUND_NAME=Chlorpyrifos
SPECTRUM_ID=MSBNK-Eawag-EA295004
ADDUCT=[M+H]+
MS_LEVEL=MS2
PRECURSOR_MZ=349.9336
IONMODE=positive
NOMINAL_MASS=349
PARENT_MASS=348.9263
78.9402 1.0 
96.9508 459.0 
98.984 1.0 
109.0047 2.0 
110.9668 2.0 
114.9613 766.0 
116.9655 1.0 
124.9822 42.0 
128.9772 1.0 
142.9928 8.0 
153.0134 2.0 
161.9512 1.0 
171.0241 4.0 
179.9612 6.0 
197.9275 999.0 
213.9047 202.0 
275.8605 74.0 
293.871 72.0 
321.9208 14.0 
END IONS

BEGIN IONS
SYNON=diethoxy-sulfanylidene-(3,5,6-trichloropyridin-2-yl)oxy-{5}-phosphane
INCHIKEY=SBPBAQFWLVIOKP-UHFFFAOYSA-N
INCHI=InChI=1S/C9H11Cl3NO3PS/c1-3-14-17(18,15-4-2)16-9-7(11)5-6(10)8(12)13-9/h5H,3-4H2,1-2H3
SMILES=Clc1c(OP(=S)(OCC)OCC)nc(Cl)c(Cl)c1
INSTRUMENT_TYPE=LC-ESI-ITFT
INSTRUMENT=LTQ Orbitrap XL Thermo Scientific
COLLISION_ENERGY=35 % (nominal)
FORMULA=C9H11Cl3NO3PS
PARENT=349.9336
SPLASH=splash10-00di-0119000000-ba99c1365306cb006059
NUM_PEAKS=13
COMPOUND_NAME=Chlorpyrifos
SPECTRUM_ID=MSBNK-Eawag-EA295014
ADDUCT=[M+H]+
MS_LEVEL=MS2
PRECURSOR_MZ=349.9336
IONMODE=positive
NOMINAL_MASS=349
PARENT_MASS=348.9263
96.9508 3.0 
114.9612 1.0 
124.9821 7.0 
153.0133 6.0 
171.024 1.0 
197.9275 113.0 
213.9042 5.0 
225.9593 1.0 
272.9821 11.0 
275.8603 8.0 
293.8709 173.0 
303.8917 36.0 
321.9021 999.0 
END IONS

BEGIN IONS
SYNON=(2,2-dimethyl-3H-1-benzofuran-7-yl) N-methylcarbamate
INCHIKEY=DUEPRVBVGDRKAG-UHFFFAOYSA-N
INCHI=InChI=1S/C12H15NO3/c1-12(2)7-8-5-4-6-9(10(8)16-12)15-11(14)13-3/h4-6H,7H2,1-3H3,(H,13,14)
SMILES=CC2(C)CC1=C(C(=CC=C1)OC(NC)=O)O2
INSTRUMENT_TYPE=LC-ESI-QFT
INSTRUMENT=Q Exactive Orbitrap Thermo Scientific
COLLISION_ENERGY=45 (nominal)
FORMULA=C12H15NO3
PARENT=222.1125
SPLASH=splash10-00di-0900000000-fb307ce637826c8f8ed1
NUM_PEAKS=18
COMPOUND_NAME=Carbofuran
SPECTRUM_ID=MSBNK-Eawag-EQ304003
ADDUCT=[M+H]+
MS_LEVEL=MS2
PRECURSOR_MZ=222.1125
IONMODE=positive
NOMINAL_MASS=221
PARENT_MASS=221.10519
51.0229 2.0 
55.0543 2.0 
58.0287 14.0 
67.0542 2.0 
91.0541 20.0 
95.049 5.0 
105.0332 1.0 
107.049 1.0 
109.0283 5.0 
111.0439 10.0 
119.0491 1.0 
119.0854 32.0 
123.0439 999.0 
137.0596 72.0 
137.0958 4.0 
147.0803 31.0 
165.0908 402.0 
222.1123 1.0 
END IONS

BEGIN IONS
SYNON=dimethoxy-sulfanylidene-(3,5,6-trichloropyridin-2-yl)oxy-{5}-phosphane
INCHIKEY=HRBKVYFZANMGRE-UHFFFAOYSA-N
INCHI=InChI=1S/C7H7Cl3NO3PS/c1-12-15(16,13-2)14-7-5(9)3-4(8)6(10)11-7/h3H,1-2H3
SMILES=Clc1c(OP(=S)(OC)OC)nc(Cl)c(Cl)c1
INSTRUMENT_TYPE=LC-ESI-ITFT
INSTRUMENT=LTQ Orbitrap XL Thermo Scientific
COLLISION_ENERGY=45 % (nominal)
FORMULA=C7H7Cl3NO3PS
PARENT=321.9023
SPLASH=splash10-00dl-0910000000-f9156de8cac1c5811099
NUM_PEAKS=13
COMPOUND_NAME=Chlorpyrifos-methyl
SPECTRUM_ID=MSBNK-Eawag-EA295110
ADDUCT=[M+H]+
MS_LEVEL=MS2
PRECURSOR_MZ=321.9023
IONMODE=positive
NOMINAL_MASS=321
PARENT_MASS=320.8950
62.0184 6.0 
78.9942 54.0 
109.0048 13.0 
110.9663 10.0 
124.9819 999.0 
127.0153 208.0 
142.9925 871.0 
197.9274 11.0 
207.9386 3.0 
211.8886 21.0 
211.9429 6.0 
229.8992 42.0 
289.8758 274.0 
END IONS

BEGIN IONS
SYNON=3-(dimethoxyphosphinothioylsulfanylmethyl)-5-methoxy-1,3,4-thiadiazol-2-one
INCHIKEY=MEBQXILRKZHVCX-UHFFFAOYSA-N
INCHI=InChI=1S/C6H11N2O4PS3/c1-10-5-7-8(6(9)16-5)4-15-13(14,11-2)12-3/h4H2,1-3H3
SMILES=O=C1SC(=N/N1CSP(=S)(OC)OC)\OC
INSTRUMENT_TYPE=LC-ESI-QFT
INSTRUMENT=Q Exactive Orbitrap Thermo Scientific
COLLISION_ENERGY=90 (nominal)
FORMULA=C6H11N2O4PS3
PARENT=302.9691
SPLASH=splash10-0a4i-9000000000-8ec295cc55d281f43046
NUM_PEAKS=7
COMPOUND_NAME=Methidathion
SPECTRUM_ID=MSBNK-Eawag-EQ309606
ADDUCT=[M+H]+
MS_LEVEL=MS2
PRECURSOR_MZ=302.9691
IONMODE=positive
NOMINAL_MASS=302
PARENT_MASS=301.96186
56.0133 2.0 
58.0288 999.0 
71.024 309.0 
78.9944 3.0 
85.0397 444.0 
103.0503 67.0 
142.9928 3.0 
END IONS

BEGIN IONS
SYNON=(2,2-dimethyl-3H-1-benzofuran-7-yl) N-methylcarbamate
INCHIKEY=DUEPRVBVGDRKAG-UHFFFAOYSA-N
INCHI=InChI=1S/C12H15NO3/c1-12(2)7-8-5-4-6-9(10(8)16-12)15-11(14)13-3/h4-6H,7H2,1-3H3,(H,13,14)
SMILES=CC2(C)CC1=C(C(=CC=C1)OC(NC)=O)O2
INSTRUMENT_TYPE=LC-ESI-QFT
INSTRUMENT=Q Exactive Orbitrap Thermo Scientific
COLLISION_ENERGY=90 (nominal)
FORMULA=C12H15NO3
PARENT=222.1125
SPLASH=splash10-00di-3900000000-836e257234a48d1bc272
NUM_PEAKS=35
COMPOUND_NAME=Carbofuran
SPECTRUM_ID=MSBNK-Eawag-EQ304006
ADDUCT=[M+H]+
MS_LEVEL=MS2
PRECURSOR_MZ=222.1125
IONMODE=positive
NOMINAL_MASS=221
PARENT_MASS=221.10519
50.0152 1.0 
51.0229 3.0 
53.0387 2.0 
55.0543 4.0 
58.0288 34.0 
65.0386 23.0 
67.0542 71.0 
77.0385 28.0 
79.0542 7.0 
81.0335 7.0 
81.0698 1.0 
91.0542 155.0 
93.0334 4.0 
93.0698 1.0 
95.0491 168.0 
103.0542 6.0 
104.0619 4.0 
105.0334 42.0 
105.0447 16.0 
107.0491 10.0 
109.0284 7.0 
109.0646 3.0 
110.0362 5.0 
111.0439 14.0 
115.0541 1.0 
117.0698 8.0 
119.0491 18.0 
119.0855 19.0 
123.0439 999.0 
128.0619 2.0 
131.0492 3.0 
132.0568 5.0 
137.0596 30.0 
147.0804 7.0 
165.0907 3.0 
END IONS

BEGIN IONS
SYNON=3-(diethoxyphosphinothioylsulfanylmethyl)-1,2,3-benzotriazin-4-one
INCHIKEY=RQVGAIADHNPSME-UHFFFAOYSA-N
INCHI=InChI=1S/C12H16N3O3PS2/c1-3-17-19(20,18-4-2)21-9-15-12(16)10-7-5-6-8-11(10)13-14-15/h5-8H,3-4,9H2,1-2H3
SMILES=CCOP(=S)(OCC)SCN1C(=O)C2=CC=CC=C2N=N1
INSTRUMENT_TYPE=LC-ESI-QFT
INSTRUMENT=Q Exactive Plus Orbitrap Thermo Scientific
COLLISION_ENERGY=90 (nominal)
FORMULA=C12H16N3O3PS2
PARENT=346.0443
SPLASH=splash10-08fr-6900000000-eb8d36be6aca60e7abc2
NUM_PEAKS=48
COMPOUND_NAME=Azinphos-ethyl
SPECTRUM_ID=MSBNK-Eawag-EQ365406
ADDUCT=[M+H]+
MS_LEVEL=MS2
PRECURSOR_MZ=346.0443
IONMODE=positive
NOMINAL_MASS=345
PARENT_MASS=345.03707
50.0152 55.0 
51.023 205.0 
53.0386 106.0 
55.0179 6.0 
59.9665 1.0 
62.9453 1.0 
63.023 1.0 
64.9788 163.0 
65.0386 102.0 
67.0543 4.0 
68.9794 12.0 
75.0229 28.0 
76.0182 4.0 
77.0386 218.0 
78.0339 6.0 
78.0465 6.0 
78.9402 30.0 
81.0335 12.0 
92.0257 7.0 
94.0414 6.0 
95.0492 372.0 
96.0444 5.0 
96.9509 109.0 
97.0108 10.0 
98.9842 15.0 
102.0339 33.0 
103.0543 5.0 
104.0496 70.0 
105.0336 35.0 
105.0449 223.0 
108.0029 26.0 
109.0108 428.0 
110.9667 1.0 
114.9615 999.0 
120.0444 12.0 
121.0106 2.0 
121.0282 1.0 
128.9772 13.0 
130.0401 46.0 
132.0445 5.0 
132.972 5.0 
135.998 28.0 
136.0217 1.0 
137.0057 103.0 
142.9385 9.0 
153.0008 10.0 
154.9715 5.0 
170.9488 6.0 
END IONS

BEGIN IONS
SYNON=(2,2-dimethyl-3H-1-benzofuran-7-yl) N-methylcarbamate
INCHIKEY=DUEPRVBVGDRKAG-UHFFFAOYSA-N
INCHI=InChI=1S/C12H15NO3/c1-12(2)7-8-5-4-6-9(10(8)16-12)15-11(14)13-3/h4-6H,7H2,1-3H3,(H,13,14)
SMILES=CC2(C)CC1=C(C(=CC=C1)OC(NC)=O)O2
INSTRUMENT_TYPE=LC-ESI-QFT
INSTRUMENT=Q Exactive Orbitrap Thermo Scientific
COLLISION_ENERGY=30 (nominal)
FORMULA=C12H15NO3
PARENT=222.1125
SPLASH=splash10-014i-0900000000-59bdc6f8164dc530582d
NUM_PEAKS=13
COMPOUND_NAME=Carbofuran
SPECTRUM_ID=MSBNK-Eawag-EQ304002
ADDUCT=[M+H]+
MS_LEVEL=MS2
PRECURSOR_MZ=222.1125
IONMODE=positive
NOMINAL_MASS=221
PARENT_MASS=221.10519
55.0543 3.0 
58.0288 5.0 
91.054 3.0 
109.0283 1.0 
111.0438 2.0 
119.0854 12.0 
123.0439 375.0 
137.0596 26.0 
137.0959 2.0 
147.0802 13.0 
165.0909 999.0 
191.07 1.0 
222.1122 39.0 
END IONS

BEGIN IONS
SYNON=3-(diethoxyphosphinothioylsulfanylmethyl)-1,2,3-benzotriazin-4-one
INCHIKEY=RQVGAIADHNPSME-UHFFFAOYSA-N
INCHI=InChI=1S/C12H16N3O3PS2/c1-3-17-19(20,18-4-2)21-9-15-12(16)10-7-5-6-8-11(10)13-14-15/h5-8H,3-4,9H2,1-2H3
SMILES=CCOP(=S)(OCC)SCN1C(=O)C2=CC=CC=C2N=N1
INSTRUMENT_TYPE=LC-ESI-QFT
INSTRUMENT=Q Exactive Plus Orbitrap Thermo Scientific
COLLISION_ENERGY=15 (nominal)
FORMULA=C12H16N3O3PS2
PARENT=346.0443
SPLASH=splash10-03e9-0940000000-ea77e4d6bf538e8bfabd
NUM_PEAKS=35
COMPOUND_NAME=Azinphos-ethyl
SPECTRUM_ID=MSBNK-Eawag-EQ365401
ADDUCT=[M+H]+
MS_LEVEL=MS2
PRECURSOR_MZ=346.0443
IONMODE=positive
NOMINAL_MASS=345
PARENT_MASS=345.03707
51.0228 1.0 
64.9786 2.0 
75.0263 6.0 
77.0385 6.0 
96.9506 18.0 
104.0496 19.0 
105.0336 31.0 
109.9825 1.0 
114.9614 390.0 
120.0447 2.0 
124.9821 40.0 
126.9435 8.0 
128.977 16.0 
132.0445 999.0 
135.9976 2.0 
136.022 11.0 
137.0056 118.0 
138.0138 23.0 
142.9387 301.0 
148.0217 58.0 
150.0551 91.0 
152.9829 9.0 
153.0135 177.0 
160.0507 614.0 
164.0706 8.0 
166.0323 133.0 
170.9699 555.0 
171.0241 347.0 
197.009 3.0 
199.0013 155.0 
216.9719 9.0 
232.9493 779.0 
260.9807 818.0 
261.9759 76.0 
289.0119 218.0 
END IONS

BEGIN IONS
SYNON=diethoxy-(2-isopropyl-6-methyl-pyrimidin-4-yl)oxy-thioxo-phosphorane
INCHIKEY=FHIVAFMUCKRCQO-UHFFFAOYSA-N
INCHI=InChI=1S/C12H21N2O3PS/c1-6-15-18(19,16-7-2)17-11-8-10(5)13-12(14-11)9(3)4/h8-9H,6-7H2,1-5H3
SMILES=O(c1nc(nc(c1)C)C(C)C)P(OCC)(OCC)=S
INSTRUMENT_TYPE=LC-ESI-ITFT
INSTRUMENT=LTQ Orbitrap XL Thermo Scientific
COLLISION_ENERGY=90 % (nominal)
FORMULA=C12H21N2O3PS
PARENT=305.1083
SPLASH=splash10-0w2a-6900000000-8011c485731c42bd49f7
NUM_PEAKS=18
COMPOUND_NAME=Diazinon
SPECTRUM_ID=MSBNK-Eawag-EA029307
ADDUCT=[M+H]+
MS_LEVEL=MS2
PRECURSOR_MZ=305.1083
IONMODE=positive
NOMINAL_MASS=304
PARENT_MASS=304.1011
58.9951 30.0 
64.9788 33.0 
67.0417 48.0 
70.0652 167.0 
78.9402 34.0 
80.9737 51.0 
82.9951 22.0 
84.0444 467.0 
90.9939 12.0 
96.9508 842.0 
98.9842 152.0 
100.0216 999.0 
109.0051 97.0 
114.9614 658.0 
153.048 56.0 
153.1022 180.0 
154.0561 49.0 
169.0795 395.0 
END IONS

BEGIN IONS
SYNON=ethyl 2-diethoxyphosphinothioyloxy-5-methylpyrazolo[1,5-a]pyrimidine-6-carboxylate
INCHIKEY=JOOMJVFZQRQWKR-UHFFFAOYSA-N
INCHI=InChI=1S/C14H20N3O5PS/c1-5-19-14(18)11-9-17-12(15-10(11)4)8-13(16-17)22-23(24,20-6-2)21-7-3/h8-9H,5-7H2,1-4H3
SMILES=CCOC(=O)C1=CN2C(=CC(=N2)OP(=S)(OCC)OCC)N=C1C
INSTRUMENT_TYPE=LC-ESI-QFT
INSTRUMENT=Exploris 240 Orbitrap Thermo Scientific
COLLISION_ENERGY=15 % (nominal)
FORMULA=C14H20N3O5PS
PARENT=374.0934
SPLASH=splash10-00di-0009000000-edeaa48e65cb6a1f213c
NUM_PEAKS=4
COMPOUND_NAME=Pyrazophos
SPECTRUM_ID=MSBNK-Eawag-EQ01139401
ADDUCT=[M+H]+
MS_LEVEL=MS2
PRECURSOR_MZ=374.0934
IONMODE=positive
NOMINAL_MASS=373
PARENT_MASS=373.0861
222.0876 12.0 
238.0648 2.0 
346.0618 22.0 
374.0933 999.0 
END IONS

BEGIN IONS
SYNON=3-[(butan-2-ylthio)-ethoxyphosphoryl]-2-thiazolidinone
INCHIKEY=DUFVKSUJRWYZQP-UHFFFAOYSA-N
INCHI=InChI=1S/C9H18NO3PS2/c1-4-8(3)16-14(12,13-5-2)10-6-7-15-9(10)11/h8H,4-7H2,1-3H3
SMILES=O=P(SC(CC)C)(OCC)N1C(=O)SCC1
INSTRUMENT_TYPE=LC-ESI-QFT
INSTRUMENT=Q Exactive Orbitrap Thermo Scientific
COLLISION_ENERGY=75 (nominal)
FORMULA=C9H18NO3PS2
PARENT=284.0538
SPLASH=splash10-0udi-0900000000-bbd26ebe10ce306558da
NUM_PEAKS=25
COMPOUND_NAME=Fosthiazate
SPECTRUM_ID=MSBNK-Eawag-EQ305005
ADDUCT=[M+H]+
MS_LEVEL=MS2
PRECURSOR_MZ=284.0538
IONMODE=positive
NOMINAL_MASS=283
PARENT_MASS=283.04657
57.0698 2.0 
58.9949 2.0 
61.0106 31.0 
74.0058 3.0 
76.0214 26.0 
87.9945 1.0 
94.9172 2.0 
98.0001 3.0 
104.0163 999.0 
106.005 2.0 
109.9999 1.0 
114.9611 26.0 
119.9934 12.0 
120.9327 2.0 
121.9822 10.0 
124.0156 7.0 
137.9593 60.0 
138.9434 3.0 
139.9563 15.0 
139.9927 9.0 
165.9719 6.0 
171.9646 10.0 
181.949 2.0 
183.9826 9.0 
199.9595 8.0 
END IONS

BEGIN IONS
SYNON=2,2-bis(chloranyl)ethenyl dimethyl phosphate
INCHIKEY=OEBRKCOSUFCWJD-UHFFFAOYSA-N
INCHI=InChI=1S/C4H7Cl2O4P/c1-8-11(7,9-2)10-3-4(5)6/h3H,1-2H3
SMILES=O=P(O\C=C(/Cl)Cl)(OC)OC
INSTRUMENT_TYPE=LC-ESI-QFT
INSTRUMENT=Q Exactive Orbitrap Thermo Scientific
COLLISION_ENERGY=15 (nominal)
FORMULA=C4H7Cl2O4P
PARENT=220.9532
SPLASH=splash10-00fr-0690000000-26446ccc45ba04ecd6a2
NUM_PEAKS=10
COMPOUND_NAME=Dichlorvos
SPECTRUM_ID=MSBNK-Eawag-EQ304701
ADDUCT=[M+H]+
MS_LEVEL=MS2
PRECURSOR_MZ=220.9532
IONMODE=positive
NOMINAL_MASS=220
PARENT_MASS=219.94590
76.9788 5.0 
78.9942 9.0 
94.9446 1.0 
94.9891 1.0 
109.0047 21.0 
111.9471 1.0 
112.9998 2.0 
127.0154 665.0 
144.9815 82.0 
220.953 999.0 
END IONS

BEGIN IONS
SYNON=N,N-dimethylcarbamic acid [2-(dimethylamino)-5,6-dimethyl-4-pyrimidinyl] ester
INCHIKEY=YFGYUFNIOHWBOB-UHFFFAOYSA-N
INCHI=InChI=1S/C11H18N4O2/c1-7-8(2)12-10(14(3)4)13-9(7)17-11(16)15(5)6/h1-6H3
SMILES=n(c(c(C)c1OC(=O)N(C)C)C)c(n1)N(C)C
INSTRUMENT_TYPE=LC-ESI-ITFT
INSTRUMENT=LTQ Orbitrap XL Thermo Scientific
COLLISION_ENERGY=30 % (nominal)
FORMULA=C11H18N4O2
PARENT=239.1503
SPLASH=splash10-0080-4790000000-13da6e9bc1248d9a13e1
NUM_PEAKS=5
COMPOUND_NAME=Pirimicarb
SPECTRUM_ID=MSBNK-Eawag-EA271103
ADDUCT=[M+H]+
MS_LEVEL=MS2
PRECURSOR_MZ=239.1503
IONMODE=positive
NOMINAL_MASS=238
PARENT_MASS=238.1430
72.0444 502.0 
166.0975 5.0 
182.1288 734.0 
195.1603 66.0 
239.1499 999.0 
END IONS

BEGIN IONS
SYNON=ethyl 3-[[(2,2-dimethyl-3H-1-benzofuran-7-yl)oxycarbonyl-methylamino]sulfanyl-propan-2-ylamino]propanoate
INCHIKEY=FYZBOYWSHKHDMT-UHFFFAOYSA-N
INCHI=InChI=1S/C20H30N2O5S/c1-7-25-17(23)11-12-22(14(2)3)28-21(6)19(24)26-16-10-8-9-15-13-20(4,5)27-18(15)16/h8-10,14H,7,11-13H2,1-6H3
SMILES=CCOC(=O)CCN(C(C)C)SN(C)C(=O)OC1=CC=CC2=C1OC(C2)(C)C
INSTRUMENT_TYPE=LC-ESI-QFT
INSTRUMENT=Exploris 240 Orbitrap Thermo Scientific
COLLISION_ENERGY=60 % (nominal)
FORMULA=C20H30N2O5S
PARENT=411.1948
SPLASH=splash10-01ot-2900000000-96254c60f68d83cc8c2e
NUM_PEAKS=38
COMPOUND_NAME=Benfuracarb
SPECTRUM_ID=MSBNK-Eawag-EQ01120504
ADDUCT=[M+H]+
MS_LEVEL=MS2
PRECURSOR_MZ=411.1948
IONMODE=positive
NOMINAL_MASS=410
PARENT_MASS=410.1875
55.0178 18.0 
56.0495 7.0 
58.0288 31.0 
58.0651 17.0 
70.0652 69.0 
73.0285 148.0 
74.006 203.0 
74.0601 16.0 
84.9743 80.0 
90.0372 152.0 
97.0104 11.0 
101.0598 25.0 
102.0009 265.0 
105.0699 22.0 
109.0284 37.0 
109.0648 20.0 
111.0804 31.0 
112.0757 29.0 
115.0544 46.0 
116.062 21.0 
116.071 27.0 
120.0114 26.0 
123.0438 11.0 
125.0056 53.0 
125.0424 7.0 
133.0648 41.0 
137.0602 13.0 
143.0485 39.0 
148.0422 19.0 
149.0424 42.0 
153.0012 26.0 
153.0368 117.0 
158.1172 32.0 
161.0603 47.0 
162.0676 632.0 
167.0525 71.0 
177.037 106.0 
195.0476 999.0 
END IONS

BEGIN IONS
SYNON=N-methylcarbamic acid 1-naphthalenyl ester
INCHIKEY=CVXBEEMKQHEXEN-UHFFFAOYSA-N
INCHI=InChI=1S/C12H11NO2/c1-13-12(14)15-11-8-4-6-9-5-2-3-7-10(9)11/h2-8H,1H3,(H,13,14)
SMILES=c12c(OC(NC)=O)cccc1cccc2
INSTRUMENT_TYPE=LC-ESI-QFT
INSTRUMENT=Q Exactive Orbitrap Thermo Scientific
COLLISION_ENERGY=90 (nominal)
FORMULA=C12H11NO2
PARENT=202.0863
SPLASH=splash10-05mk-0900000000-c4fe280b34217096ffbe
NUM_PEAKS=16
COMPOUND_NAME=Carbaryl
SPECTRUM_ID=MSBNK-Eawag-EQ303806
ADDUCT=[M+H]+
MS_LEVEL=MS2
PRECURSOR_MZ=202.0863
IONMODE=positive
NOMINAL_MASS=201
PARENT_MASS=201.07898
58.0287 30.0 
65.0385 2.0 
91.0542 145.0 
95.0491 18.0 
103.0542 38.0 
115.0541 330.0 
116.0619 18.0 
117.0697 610.0 
126.0464 11.0 
127.0541 140.0 
128.0619 4.0 
131.0489 1.0 
144.057 16.0 
145.0648 999.0 
155.0602 521.0 
156.0568 3.0 
END IONS

BEGIN IONS
SYNON=2-(dimethoxyphosphinothioylthio)-N-methylacetamide
INCHIKEY=MCWXGJITAZMZEV-UHFFFAOYSA-N
INCHI=InChI=1S/C5H12NO3PS2/c1-6-5(7)4-12-10(11,8-2)9-3/h4H2,1-3H3,(H,6,7)
SMILES=P(SCC(NC)=O)(OC)(OC)=S
INSTRUMENT_TYPE=LC-ESI-ITFT
INSTRUMENT=LTQ Orbitrap XL Thermo Scientific
COLLISION_ENERGY=75 % (nominal)
FORMULA=C5H12NO3PS2
PARENT=230.0069
SPLASH=splash10-006x-2900000000-95b8650f9dd678f48945
NUM_PEAKS=29
COMPOUND_NAME=Dimethoate
SPECTRUM_ID=MSBNK-Eawag-EA276112
ADDUCT=[M+H]+
MS_LEVEL=MS2
PRECURSOR_MZ=230.0069
IONMODE=positive
NOMINAL_MASS=229
PARENT_MASS=228.9996
58.9951 4.0 
59.9998 1.0 
61.0106 12.0 
62.0185 18.0 
62.9994 8.0 
72.0443 1.0 
76.0215 9.0 
78.0102 4.0 
78.9943 279.0 
86.0059 1.0 
88.0215 64.0 
92.0259 6.0 
93.01 113.0 
94.9714 3.0 
97.0048 2.0 
104.0164 8.0 
109.0051 4.0 
110.9664 37.0 
119.9936 5.0 
123.998 50.0 
124.982 999.0 
127.0154 21.0 
128.977 50.0 
140.9589 2.0 
142.9926 888.0 
144.9968 1.0 
155.9702 10.0 
156.954 83.0 
170.9698 10.0 
END IONS

BEGIN IONS
SYNON=ethyl 2-diethoxyphosphinothioyloxy-5-methylpyrazolo[1,5-a]pyrimidine-6-carboxylate
INCHIKEY=JOOMJVFZQRQWKR-UHFFFAOYSA-N
INCHI=InChI=1S/C14H20N3O5PS/c1-5-19-14(18)11-9-17-12(15-10(11)4)8-13(16-17)22-23(24,20-6-2)21-7-3/h8-9H,5-7H2,1-4H3
SMILES=CCOC(=O)C1=CN2C(=CC(=N2)OP(=S)(OCC)OCC)N=C1C
INSTRUMENT_TYPE=LC-ESI-QFT
INSTRUMENT=Exploris 240 Orbitrap Thermo Scientific
COLLISION_ENERGY=150 % (nominal)
FORMULA=C14H20N3O5PS
PARENT=374.0934
SPLASH=splash10-02td-9000000000-30a71b1f8a1e2de56cc5
NUM_PEAKS=38
COMPOUND_NAME=Pyrazophos
SPECTRUM_ID=MSBNK-Eawag-EQ01139408
ADDUCT=[M+H]+
MS_LEVEL=MS2
PRECURSOR_MZ=374.0934
IONMODE=positive
NOMINAL_MASS=373
PARENT_MASS=373.0861
51.0228 232.0 
52.0181 170.0 
53.0022 129.0 
54.0338 271.0 
55.018 63.0 
56.0495 88.0 
62.9633 35.0 
64.0184 79.0 
64.9787 949.0 
65.0386 188.0 
66.0338 999.0 
67.0178 157.0 
67.0293 40.0 
67.0418 108.0 
68.0131 513.0 
68.0495 110.0 
70.0287 79.0 
76.0182 111.0 
77.0261 45.0 
78.0337 233.0 
78.9402 461.0 
79.0291 57.0 
79.0418 61.0 
80.0132 88.0 
80.9735 207.0 
81.0446 35.0 
82.0286 49.0 
92.0497 72.0 
93.0447 676.0 
94.0288 311.0 
95.0604 105.0 
96.9508 803.0 
98.9841 265.0 
110.0351 67.0 
114.9613 262.0 
120.0554 46.0 
121.0396 133.0 
148.0505 97.0 
END IONS

BEGIN IONS
SYNON=diethoxy-(2-isopropyl-6-methyl-pyrimidin-4-yl)oxy-thioxo-phosphorane
INCHIKEY=FHIVAFMUCKRCQO-UHFFFAOYSA-N
INCHI=InChI=1S/C12H21N2O3PS/c1-6-15-18(19,16-7-2)17-11-8-10(5)13-12(14-11)9(3)4/h8-9H,6-7H2,1-5H3
SMILES=O(c1nc(nc(c1)C)C(C)C)P(OCC)(OCC)=S
INSTRUMENT_TYPE=LC-ESI-ITFT
INSTRUMENT=LTQ Orbitrap XL Thermo Scientific
COLLISION_ENERGY=30 % (nominal)
FORMULA=C12H21N2O3PS
PARENT=305.1083
SPLASH=splash10-0aor-0905000000-54dc7dc28ca7ec93789e
NUM_PEAKS=11
COMPOUND_NAME=Diazinon
SPECTRUM_ID=MSBNK-Eawag-EA029309
ADDUCT=[M+H]+
MS_LEVEL=MS2
PRECURSOR_MZ=305.1083
IONMODE=positive
NOMINAL_MASS=304
PARENT_MASS=304.1011
70.0649 2.0 
96.9508 31.0 
114.9613 21.0 
124.982 11.0 
153.1023 498.0 
169.0795 945.0 
181.1334 29.0 
231.0357 3.0 
249.0453 2.0 
277.0777 6.0 
305.1087 999.0 
END IONS

BEGIN IONS
SYNON=N,N-dimethylcarbamic acid [2-(dimethylamino)-5,6-dimethyl-4-pyrimidinyl] ester
INCHIKEY=YFGYUFNIOHWBOB-UHFFFAOYSA-N
INCHI=InChI=1S/C11H18N4O2/c1-7-8(2)12-10(14(3)4)13-9(7)17-11(16)15(5)6/h1-6H3
SMILES=n(c(c(C)c1OC(=O)N(C)C)C)c(n1)N(C)C
INSTRUMENT_TYPE=LC-ESI-ITFT
INSTRUMENT=LTQ Orbitrap XL Thermo Scientific
COLLISION_ENERGY=35 % (nominal)
FORMULA=C11H18N4O2
PARENT=239.1503
SPLASH=splash10-001i-0900000000-2d8ad46bb4d867c01a3a
NUM_PEAKS=7
COMPOUND_NAME=Pirimicarb
SPECTRUM_ID=MSBNK-Eawag-EA271101
ADDUCT=[M+H]+
MS_LEVEL=MS2
PRECURSOR_MZ=239.1503
IONMODE=positive
NOMINAL_MASS=238
PARENT_MASS=238.1430
72.0444 68.0 
150.1024 2.0 
166.0976 31.0 
167.1046 1.0 
182.129 999.0 
194.0928 7.0 
195.1606 404.0 
END IONS

BEGIN IONS
SYNON=2,2,2-trichloro-1-dimethoxyphosphorylethanol
INCHIKEY=NFACJZMKEDPNKN-UHFFFAOYSA-N
INCHI=InChI=1S/C4H8Cl3O4P/c1-10-12(9,11-2)3(8)4(5,6)7/h3,8H,1-2H3
SMILES=COP(=O)(C(C(Cl)(Cl)Cl)O)OC
INSTRUMENT_TYPE=LC-ESI-QFT
INSTRUMENT=Exploris 240 Orbitrap Thermo Scientific
COLLISION_ENERGY=120 % (nominal)
FORMULA=C4H8Cl3O4P
PARENT=256.9299
SPLASH=splash10-003r-9000000000-f3240c14dce157d22ad6
NUM_PEAKS=8
COMPOUND_NAME=Trichlorfon
SPECTRUM_ID=MSBNK-Eawag-EQ01131807
ADDUCT=[M+H]+
MS_LEVEL=MS2
PRECURSOR_MZ=256.9299
IONMODE=positive
NOMINAL_MASS=256
PARENT_MASS=255.9226
62.9994 140.0 
64.9788 21.0 
78.9943 677.0 
82.945 999.0 
93.01 29.0 
97.005 27.0 
109.0046 30.0 
127.0153 85.0 
END IONS

BEGIN IONS
SYNON=methyl N-[methyl-[methyl-(1-methylsulfanylethylideneamino)oxycarbonylamino]sulfanylcarbamoyl]oxyethanimidothioate
INCHIKEY=XDOTVMNBCQVZKG-UHFFFAOYSA-N
INCHI=InChI=1S/C10H18N4O4S3/c1-7(19-5)11-17-9(15)13(3)21-14(4)10(16)18-12-8(2)20-6/h1-6H3
SMILES=CC(=NOC(=O)N(C)SN(C)C(=O)ON=C(C)SC)SC
INSTRUMENT_TYPE=LC-ESI-QFT
INSTRUMENT=Exploris 240 Orbitrap Thermo Scientific
COLLISION_ENERGY=90 % (nominal)
FORMULA=C10H18N4O4S3
PARENT=355.0563
SPLASH=splash10-01p9-9000000000-3d8414b474ddf7fd332a
NUM_PEAKS=13
COMPOUND_NAME=Thiodicarb
SPECTRUM_ID=MSBNK-Eawag-EQ01131406
ADDUCT=[M+H]+
MS_LEVEL=MS2
PRECURSOR_MZ=355.0563
IONMODE=positive
NOMINAL_MASS=354
PARENT_MASS=354.0490
56.0495 174.0 
58.0287 18.0 
59.9902 145.0 
60.9981 126.0 
61.0106 101.0 
62.0059 290.0 
63.9436 16.0 
71.9903 49.0 
72.998 496.0 
74.0057 16.0 
78.967 205.0 
88.0215 999.0 
107.9936 15.0 
END IONS

BEGIN IONS
SYNON=(1E)-N-(methylcarbamoyloxy)ethanimidothioic acid methyl ester
INCHIKEY=UHXUZOCRWCRNSJ-QPJJXVBHSA-N
INCHI=InChI=1S/C5H10N2O2S/c1-4(10-3)7-9-5(8)6-2/h1-3H3,(H,6,8)/b7-4+
SMILES=C/C(=N\OC(=O)NC)SC
INSTRUMENT_TYPE=LC-ESI-ITFT
INSTRUMENT=LTQ Orbitrap XL Thermo Scientific
COLLISION_ENERGY=90 % (nominal)
FORMULA=C5H10N2O2S
PARENT=163.0536
SPLASH=splash10-05g0-9000000000-c800429b256376d754ae
NUM_PEAKS=9
COMPOUND_NAME=Methomyl
SPECTRUM_ID=MSBNK-Eawag-EA294213
ADDUCT=[M+H]+
MS_LEVEL=MS2
PRECURSOR_MZ=163.0536
IONMODE=positive
NOMINAL_MASS=162
PARENT_MASS=162.0463
56.0494 93.0 
57.0698 9.0 
58.0287 290.0 
61.0106 66.0 
65.0057 20.0 
71.9902 71.0 
72.998 999.0 
88.0215 908.0 
106.032 273.0 
END IONS

BEGIN IONS
SYNON=N-[ethoxy-(3-methyl-4-methylsulfanylphenoxy)phosphoryl]propan-2-amine
INCHIKEY=ZCJPOPBZHLUFHF-UHFFFAOYSA-N
INCHI=InChI=1S/C13H22NO3PS/c1-6-16-18(15,14-10(2)3)17-12-7-8-13(19-5)11(4)9-12/h7-10H,6H2,1-5H3,(H,14,15)
SMILES=CCOP(=O)(NC(C)C)OC1=CC(=C(C=C1)SC)C
INSTRUMENT_TYPE=LC-ESI-QFT
INSTRUMENT=Exploris 240 Orbitrap Thermo Scientific
COLLISION_ENERGY=120 % (nominal)
FORMULA=C13H22NO3PS
PARENT=304.1131
SPLASH=splash10-0200-9800000000-bbe56df4314ce6a3a92f
NUM_PEAKS=34
COMPOUND_NAME=Fenamiphos
SPECTRUM_ID=MSBNK-Eawag-EQ01124707
ADDUCT=[M+H]+
MS_LEVEL=MS2
PRECURSOR_MZ=304.1131
IONMODE=positive
NOMINAL_MASS=303
PARENT_MASS=303.1058
53.0385 171.0 
58.995 179.0 
62.9453 86.0 
65.0384 161.0 
66.0463 273.0 
67.0541 59.0 
77.0385 473.0 
78.0463 576.0 
79.0541 348.0 
79.9895 51.0 
84.0028 78.0 
89.0384 37.0 
90.0463 70.0 
91.0542 581.0 
93.07 35.0 
95.0491 141.0 
97.0107 424.0 
98.0003 57.0 
103.054 124.0 
104.0619 56.0 
106.0411 51.0 
107.0491 461.0 
108.057 200.0 
109.0105 114.0 
109.0649 81.0 
110.0184 999.0 
121.0105 533.0 
122.0182 340.0 
137.0054 121.0 
138.0132 327.0 
139.0217 91.0 
168.9868 102.0 
169.0052 194.0 
200.9766 232.0 
END IONS

BEGIN IONS
SYNON=3-(dimethoxyphosphinothioylsulfanylmethyl)-1,2,3-benzotriazin-4-one
INCHIKEY=CJJOSEISRRTUQB-UHFFFAOYSA-N
INCHI=InChI=1S/C10H12N3O3PS2/c1-15-17(18,16-2)19-7-13-10(14)8-5-3-4-6-9(8)11-12-13/h3-6H,7H2,1-2H3
SMILES=COP(=S)(OC)SCN1C(=O)C2=CC=CC=C2N=N1
INSTRUMENT_TYPE=LC-ESI-QFT
INSTRUMENT=Q Exactive Plus Orbitrap Thermo Scientific
COLLISION_ENERGY=45 (nominal)
FORMULA=C10H12N3O3PS2
PARENT=318.013
SPLASH=splash10-0006-1900000000-4f6e8b44b6f7880dcaf9
NUM_PEAKS=38
COMPOUND_NAME=Azinphos-methyl
SPECTRUM_ID=MSBNK-Eawag-EQ365503
ADDUCT=[M+H]+
MS_LEVEL=MS2
PRECURSOR_MZ=318.013
IONMODE=positive
NOMINAL_MASS=317
PARENT_MASS=317.00577
50.0151 3.0 
51.0229 9.0 
53.0386 69.0 
55.0179 4.0 
62.0185 15.0 
62.9995 3.0 
67.0543 3.0 
77.0386 49.0 
78.0339 1.0 
78.9944 106.0 
81.0335 7.0 
93.0101 15.0 
94.0415 5.0 
95.0493 248.0 
96.0447 3.0 
102.0337 1.0 
104.0496 337.0 
105.0336 324.0 
105.0448 145.0 
120.0446 15.0 
122.06 1.0 
124.9822 138.0 
127.0157 3.0 
130.0401 44.0 
132.0445 382.0 
135.0441 10.0 
137.0056 15.0 
142.9928 999.0 
144.997 1.0 
148.0218 7.0 
150.0551 51.0 
151.9929 5.0 
157.0085 18.0 
164.071 3.0 
167.0163 121.0 
167.9701 8.0 
170.9704 1.0 
182.9936 25.0 
END IONS

BEGIN IONS
SYNON=2-(dimethoxyphosphinothioylthio)-N-methylacetamide
INCHIKEY=MCWXGJITAZMZEV-UHFFFAOYSA-N
INCHI=InChI=1S/C5H12NO3PS2/c1-6-5(7)4-12-10(11,8-2)9-3/h4H2,1-3H3,(H,6,7)
SMILES=P(SCC(NC)=O)(OC)(OC)=S
INSTRUMENT_TYPE=LC-ESI-ITFT
INSTRUMENT=LTQ Orbitrap XL Thermo Scientific
COLLISION_ENERGY=35 % (nominal)
FORMULA=C5H12NO3PS2
PARENT=230.0069
SPLASH=splash10-0002-0900000000-736e2a7d520f91118baf
NUM_PEAKS=7
COMPOUND_NAME=Dimethoate
SPECTRUM_ID=MSBNK-Eawag-EA276101
ADDUCT=[M+H]+
MS_LEVEL=MS2
PRECURSOR_MZ=230.0069
IONMODE=positive
NOMINAL_MASS=229
PARENT_MASS=228.9996
88.0216 8.0 
124.9818 9.0 
156.954 1.0 
170.9698 65.0 
197.9811 10.0 
198.9648 999.0 
230.0069 1.0 
END IONS

BEGIN IONS
SYNON=3-(dimethoxyphosphinothioylsulfanylmethyl)-1,2,3-benzotriazin-4-one
INCHIKEY=CJJOSEISRRTUQB-UHFFFAOYSA-N
INCHI=InChI=1S/C10H12N3O3PS2/c1-15-17(18,16-2)19-7-13-10(14)8-5-3-4-6-9(8)11-12-13/h3-6H,7H2,1-2H3
SMILES=COP(=S)(OC)SCN1C(=O)C2=CC=CC=C2N=N1
INSTRUMENT_TYPE=LC-ESI-QFT
INSTRUMENT=Q Exactive Plus Orbitrap Thermo Scientific
COLLISION_ENERGY=75 (nominal)
FORMULA=C10H12N3O3PS2
PARENT=318.013
SPLASH=splash10-0kdm-9600000000-c866e4588e54203e8154
NUM_PEAKS=48
COMPOUND_NAME=Azinphos-methyl
SPECTRUM_ID=MSBNK-Eawag-EQ365505
ADDUCT=[M+H]+
MS_LEVEL=MS2
PRECURSOR_MZ=318.013
IONMODE=positive
NOMINAL_MASS=317
PARENT_MASS=317.00577
50.0152 59.0 
51.023 231.0 
53.0387 282.0 
55.0179 19.0 
59.9665 15.0 
62.0185 71.0 
62.9995 12.0 
65.0386 3.0 
67.0543 21.0 
68.9972 2.0 
75.0229 26.0 
76.0181 3.0 
77.0386 419.0 
78.0339 13.0 
78.0465 2.0 
78.9944 600.0 
81.0336 32.0 
81.0699 3.0 
92.0257 11.0 
92.0496 4.0 
93.0101 37.0 
94.0414 12.0 
95.0493 999.0 
96.0445 18.0 
97.005 9.0 
99.0439 1.0 
102.034 57.0 
104.0495 194.0 
105.0336 239.0 
105.0449 643.0 
106.0418 2.0 
109.0108 25.0 
109.0649 3.0 
120.0446 28.0 
121.0109 2.0 
124.9823 54.0 
127.0153 2.0 
130.0401 158.0 
132.0445 41.0 
135.044 7.0 
135.9979 7.0 
137.0058 42.0 
142.9928 568.0 
150.0551 2.0 
151.9928 91.0 
157.0086 10.0 
167.0162 25.0 
167.97 30.0 
END IONS

BEGIN IONS
SYNON=(3,5-dimethyl-4-methylsulfanyl-phenyl) N-methylcarbamate
INCHIKEY=YFBPRJGDJKVWAH-UHFFFAOYSA-N
INCHI=InChI=1S/C11H15NO2S/c1-7-5-9(14-11(13)12-3)6-8(2)10(7)15-4/h5-6H,1-4H3,(H,12,13)
SMILES=O=C(Oc1cc(c(SC)c(c1)C)C)NC
INSTRUMENT_TYPE=LC-ESI-ITFT
INSTRUMENT=LTQ Orbitrap XL Thermo Scientific
COLLISION_ENERGY=30 % (nominal)
FORMULA=C11H15NO2S
PARENT=226.0896
SPLASH=splash10-014i-0900000000-51aedd1268bf97d8c941
NUM_PEAKS=10
COMPOUND_NAME=Methiocarb
SPECTRUM_ID=MSBNK-Eawag-EA293703
ADDUCT=[M+H]+
MS_LEVEL=MS2
PRECURSOR_MZ=226.0896
IONMODE=positive
NOMINAL_MASS=225
PARENT_MASS=225.0823
77.0385 3.0 
91.0543 9.0 
93.0699 24.0 
121.0649 418.0 
122.0725 51.0 
123.0804 6.0 
141.0731 2.0 
153.037 3.0 
154.0446 2.0 
169.0681 999.0 
END IONS

BEGIN IONS
SYNON=3-(dimethoxyphosphinothioylsulfanylmethyl)-1,2,3-benzotriazin-4-one
INCHIKEY=CJJOSEISRRTUQB-UHFFFAOYSA-N
INCHI=InChI=1S/C10H12N3O3PS2/c1-15-17(18,16-2)19-7-13-10(14)8-5-3-4-6-9(8)11-12-13/h3-6H,7H2,1-2H3
SMILES=COP(=S)(OC)SCN1C(=O)C2=CC=CC=C2N=N1
INSTRUMENT_TYPE=LC-ESI-QFT
INSTRUMENT=Q Exactive Plus Orbitrap Thermo Scientific
COLLISION_ENERGY=180 (nominal)
FORMULA=C10H12N3O3PS2
PARENT=318.013
SPLASH=splash10-0udi-9000000000-ec3e82c3185c7906ac3d
NUM_PEAKS=34
COMPOUND_NAME=Azinphos-methyl
SPECTRUM_ID=MSBNK-Eawag-EQ365509
ADDUCT=[M+H]+
MS_LEVEL=MS2
PRECURSOR_MZ=318.013
IONMODE=positive
NOMINAL_MASS=317
PARENT_MASS=317.00577
50.0152 664.0 
51.023 999.0 
52.0182 17.0 
52.0309 21.0 
53.0023 27.0 
53.0386 29.0 
59.9665 41.0 
62.0152 18.0 
62.9453 32.0 
62.9995 14.0 
63.023 45.0 
64.0182 2.0 
64.0307 9.0 
65.0023 64.0 
65.0386 8.0 
66.0101 14.0 
66.0465 4.0 
68.9794 38.0 
69.9872 13.0 
74.0151 101.0 
75.0104 20.0 
75.023 63.0 
76.0182 38.0 
76.0307 14.0 
77.0386 45.0 
78.0338 4.0 
78.9943 16.0 
81.0335 4.0 
81.9871 4.0 
94.9949 10.0 
95.0493 55.0 
104.0494 4.0 
105.0448 34.0 
108.0026 2.0 
END IONS

BEGIN IONS
SYNON=dimethoxy-sulfanylidene-(3,5,6-trichloropyridin-2-yl)oxy-{5}-phosphane
INCHIKEY=HRBKVYFZANMGRE-UHFFFAOYSA-N
INCHI=InChI=1S/C7H7Cl3NO3PS/c1-12-15(16,13-2)14-7-5(9)3-4(8)6(10)11-7/h3H,1-2H3
SMILES=Clc1c(OP(=S)(OC)OC)nc(Cl)c(Cl)c1
INSTRUMENT_TYPE=LC-ESI-ITFT
INSTRUMENT=LTQ Orbitrap XL Thermo Scientific
COLLISION_ENERGY=60 % (nominal)
FORMULA=C7H7Cl3NO3PS
PARENT=321.9023
SPLASH=splash10-00fu-1910000000-7aff20447f8f0de185b0
NUM_PEAKS=18
COMPOUND_NAME=Chlorpyrifos-methyl
SPECTRUM_ID=MSBNK-Eawag-EA295105
ADDUCT=[M+H]+
MS_LEVEL=MS2
PRECURSOR_MZ=321.9023
IONMODE=positive
NOMINAL_MASS=321
PARENT_MASS=320.8950
62.0185 22.0 
78.9944 296.0 
93.01 6.0 
97.0048 5.0 
109.0049 17.0 
110.9665 14.0 
124.9821 999.0 
127.0156 233.0 
142.9926 955.0 
150.918 6.0 
167.9175 9.0 
176.9196 20.0 
179.9171 15.0 
197.9279 26.0 
207.9387 4.0 
211.889 108.0 
229.8998 78.0 
289.8805 85.0 
END IONS

BEGIN IONS
SYNON=diethoxy-sulfanylidene-(3,5,6-trichloropyridin-2-yl)oxy-{5}-phosphane
INCHIKEY=SBPBAQFWLVIOKP-UHFFFAOYSA-N
INCHI=InChI=1S/C9H11Cl3NO3PS/c1-3-14-17(18,15-4-2)16-9-7(11)5-6(10)8(12)13-9/h5H,3-4H2,1-2H3
SMILES=Clc1c(OP(=S)(OCC)OCC)nc(Cl)c(Cl)c1
INSTRUMENT_TYPE=LC-ESI-ITFT
INSTRUMENT=LTQ Orbitrap XL Thermo Scientific
COLLISION_ENERGY=15 % (nominal)
FORMULA=C9H11Cl3NO3PS
PARENT=349.9336
SPLASH=splash10-0002-0309000000-1c03b781190605e158ab
NUM_PEAKS=14
COMPOUND_NAME=Chlorpyrifos
SPECTRUM_ID=MSBNK-Eawag-EA295002
ADDUCT=[M+H]+
MS_LEVEL=MS2
PRECURSOR_MZ=349.9336
IONMODE=positive
NOMINAL_MASS=349
PARENT_MASS=348.9263
96.9508 78.0 
114.9613 68.0 
124.9821 94.0 
142.9927 31.0 
153.0134 29.0 
171.024 51.0 
197.9275 299.0 
213.9042 2.0 
225.9594 4.0 
275.8607 6.0 
293.8714 89.0 
303.8917 6.0 
321.9026 436.0 
349.9336 999.0 
END IONS

BEGIN IONS
SYNON=dimethoxy-sulfanylidene-(3,5,6-trichloropyridin-2-yl)oxy-{5}-phosphane
INCHIKEY=HRBKVYFZANMGRE-UHFFFAOYSA-N
INCHI=InChI=1S/C7H7Cl3NO3PS/c1-12-15(16,13-2)14-7-5(9)3-4(8)6(10)11-7/h3H,1-2H3
SMILES=Clc1c(OP(=S)(OC)OC)nc(Cl)c(Cl)c1
INSTRUMENT_TYPE=LC-ESI-ITFT
INSTRUMENT=LTQ Orbitrap XL Thermo Scientific
COLLISION_ENERGY=45 % (nominal)
FORMULA=C7H7Cl3NO3PS
PARENT=321.9023
SPLASH=splash10-00dl-0910000000-c19e8843d4ce0a7e86f6
NUM_PEAKS=13
COMPOUND_NAME=Chlorpyrifos-methyl
SPECTRUM_ID=MSBNK-Eawag-EA295104
ADDUCT=[M+H]+
MS_LEVEL=MS2
PRECURSOR_MZ=321.9023
IONMODE=positive
NOMINAL_MASS=321
PARENT_MASS=320.8950
62.0186 7.0 
78.9944 70.0 
109.0049 19.0 
110.9663 14.0 
124.9821 999.0 
127.0155 217.0 
128.9771 3.0 
142.9927 832.0 
197.9273 11.0 
211.8889 22.0 
211.9442 5.0 
229.8998 44.0 
289.8757 233.0 
END IONS

BEGIN IONS
SYNON=(1E)-N-(methylcarbamoyloxy)ethanimidothioic acid methyl ester
INCHIKEY=UHXUZOCRWCRNSJ-QPJJXVBHSA-N
INCHI=InChI=1S/C5H10N2O2S/c1-4(10-3)7-9-5(8)6-2/h1-3H3,(H,6,8)/b7-4+
SMILES=C/C(=N\OC(=O)NC)SC
INSTRUMENT_TYPE=LC-ESI-ITFT
INSTRUMENT=LTQ Orbitrap XL Thermo Scientific
COLLISION_ENERGY=75 % (nominal)
FORMULA=C5H10N2O2S
PARENT=163.0536
SPLASH=splash10-052r-9200000000-a3d913d869d143089c32
NUM_PEAKS=8
COMPOUND_NAME=Methomyl
SPECTRUM_ID=MSBNK-Eawag-EA294206
ADDUCT=[M+H]+
MS_LEVEL=MS2
PRECURSOR_MZ=163.0536
IONMODE=positive
NOMINAL_MASS=162
PARENT_MASS=162.0463
56.0495 62.0 
58.0288 176.0 
61.0107 46.0 
65.0056 25.0 
71.9903 30.0 
72.9981 415.0 
88.0216 999.0 
106.0321 405.0 
END IONS

BEGIN IONS
SYNON=N,N-dimethylcarbamic acid [2-(dimethylamino)-5,6-dimethyl-4-pyrimidinyl] ester
INCHIKEY=YFGYUFNIOHWBOB-UHFFFAOYSA-N
INCHI=InChI=1S/C11H18N4O2/c1-7-8(2)12-10(14(3)4)13-9(7)17-11(16)15(5)6/h1-6H3
SMILES=n(c(c(C)c1OC(=O)N(C)C)C)c(n1)N(C)C
INSTRUMENT_TYPE=LC-ESI-ITFT
INSTRUMENT=LTQ Orbitrap XL Thermo Scientific
COLLISION_ENERGY=45 % (nominal)
FORMULA=C11H18N4O2
PARENT=239.1503
SPLASH=splash10-00e9-9800000000-880133297ec664f3005a
NUM_PEAKS=12
COMPOUND_NAME=Pirimicarb
SPECTRUM_ID=MSBNK-Eawag-EA271110
ADDUCT=[M+H]+
MS_LEVEL=MS2
PRECURSOR_MZ=239.1503
IONMODE=positive
NOMINAL_MASS=238
PARENT_MASS=238.1430
72.0445 999.0 
83.024 5.0 
85.076 19.0 
109.0761 8.0 
137.071 27.0 
138.0787 2.0 
150.1026 15.0 
166.0978 3.0 
167.1054 7.0 
182.1289 907.0 
195.1603 35.0 
239.1494 67.0 
END IONS

BEGIN IONS
SYNON=ethyl 3-[[(2,2-dimethyl-3H-1-benzofuran-7-yl)oxycarbonyl-methylamino]sulfanyl-propan-2-ylamino]propanoate
INCHIKEY=FYZBOYWSHKHDMT-UHFFFAOYSA-N
INCHI=InChI=1S/C20H30N2O5S/c1-7-25-17(23)11-12-22(14(2)3)28-21(6)19(24)26-16-10-8-9-15-13-20(4,5)27-18(15)16/h8-10,14H,7,11-13H2,1-6H3
SMILES=CCOC(=O)CCN(C(C)C)SN(C)C(=O)OC1=CC=CC2=C1OC(C2)(C)C
INSTRUMENT_TYPE=LC-ESI-QFT
INSTRUMENT=Exploris 240 Orbitrap Thermo Scientific
COLLISION_ENERGY=15 % (nominal)
FORMULA=C20H30N2O5S
PARENT=411.1948
SPLASH=splash10-0udi-0980000000-cda1b5ca99e13d8e05e5
NUM_PEAKS=7
COMPOUND_NAME=Benfuracarb
SPECTRUM_ID=MSBNK-Eawag-EQ01120501
ADDUCT=[M+H]+
MS_LEVEL=MS2
PRECURSOR_MZ=411.1948
IONMODE=positive
NOMINAL_MASS=410
PARENT_MASS=410.1875
90.0373 54.0 
101.0596 4.0 
144.0477 30.0 
158.1176 491.0 
190.0897 481.0 
195.0476 86.0 
252.0691 999.0 
END IONS

BEGIN IONS
SYNON=ethoxy-ethyl-(phenylthio)-sulfanylidenephosphorane
INCHIKEY=KVGLBTYUCJYMND-UHFFFAOYSA-N
INCHI=InChI=1S/C10H15OPS2/c1-3-11-12(13,4-2)14-10-8-6-5-7-9-10/h5-9H,3-4H2,1-2H3
SMILES=S=P(Sc1ccccc1)(OCC)CC
INSTRUMENT_TYPE=LC-ESI-QFT
INSTRUMENT=Q Exactive Orbitrap Thermo Scientific
COLLISION_ENERGY=30 (nominal)
FORMULA=C10H15OPS2
PARENT=247.0375
SPLASH=splash10-0570-0900000000-1385da3fcc4885c8149b
NUM_PEAKS=16
COMPOUND_NAME=Fonofos
SPECTRUM_ID=MSBNK-Eawag-EQ311202
ADDUCT=[M+H]+
MS_LEVEL=MS2
PRECURSOR_MZ=247.0375
IONMODE=positive
NOMINAL_MASS=246
PARENT_MASS=246.03019
62.9453 13.0 
64.9786 2.0 
80.9558 29.0 
108.9871 808.0 
111.0263 16.0 
126.9977 999.0 
137.0184 688.0 
140.959 2.0 
141.0133 6.0 
155.029 78.0 
169.0444 3.0 
172.9643 7.0 
200.9956 74.0 
203.0291 3.0 
219.0062 26.0 
247.0378 12.0 
END IONS

BEGIN IONS
SYNON=ethoxy-ethyl-(phenylthio)-sulfanylidenephosphorane
INCHIKEY=KVGLBTYUCJYMND-UHFFFAOYSA-N
INCHI=InChI=1S/C10H15OPS2/c1-3-11-12(13,4-2)14-10-8-6-5-7-9-10/h5-9H,3-4H2,1-2H3
SMILES=S=P(Sc1ccccc1)(OCC)CC
INSTRUMENT_TYPE=LC-ESI-QFT
INSTRUMENT=Q Exactive Orbitrap Thermo Scientific
COLLISION_ENERGY=60 (nominal)
FORMULA=C10H15OPS2
PARENT=247.0375
SPLASH=splash10-056r-2900000000-64482d9aa36edec1f9db
NUM_PEAKS=20
COMPOUND_NAME=Fonofos
SPECTRUM_ID=MSBNK-Eawag-EQ311204
ADDUCT=[M+H]+
MS_LEVEL=MS2
PRECURSOR_MZ=247.0375
IONMODE=positive
NOMINAL_MASS=246
PARENT_MASS=246.03019
62.9453 120.0 
64.9785 3.0 
77.015 2.0 
80.9558 259.0 
90.9765 6.0 
94.9173 20.0 
95.0491 4.0 
108.9871 661.0 
111.0262 35.0 
126.9977 999.0 
137.0184 13.0 
138.9765 1.0 
140.9591 1.0 
141.0134 5.0 
155.0287 1.0 
156.9872 1.0 
170.9485 5.0 
172.9643 10.0 
185.0186 2.0 
200.9956 11.0 
END IONS

BEGIN IONS
SYNON=3-(dimethoxyphosphinothioylsulfanylmethyl)-5-methoxy-1,3,4-thiadiazol-2-one
INCHIKEY=MEBQXILRKZHVCX-UHFFFAOYSA-N
INCHI=InChI=1S/C6H11N2O4PS3/c1-10-5-7-8(6(9)16-5)4-15-13(14,11-2)12-3/h4H2,1-3H3
SMILES=O=C1SC(=N/N1CSP(=S)(OC)OC)\OC
INSTRUMENT_TYPE=LC-ESI-QFT
INSTRUMENT=Q Exactive Orbitrap Thermo Scientific
COLLISION_ENERGY=75 (nominal)
FORMULA=C6H11N2O4PS3
PARENT=302.9691
SPLASH=splash10-0abi-9000000000-f404a32c27c67d336d12
NUM_PEAKS=8
COMPOUND_NAME=Methidathion
SPECTRUM_ID=MSBNK-Eawag-EQ309605
ADDUCT=[M+H]+
MS_LEVEL=MS2
PRECURSOR_MZ=302.9691
IONMODE=positive
NOMINAL_MASS=302
PARENT_MASS=301.96186
56.0132 4.0 
58.0288 999.0 
71.024 579.0 
78.9943 2.0 
85.0396 880.0 
103.0503 106.0 
117.0657 2.0 
145.0069 11.0 
END IONS

BEGIN IONS
SYNON=ethyl 2-dimethoxyphosphinothioylsulfanyl-2-phenylacetate
INCHIKEY=XAMUDJHXFNRLCY-UHFFFAOYSA-N
INCHI=InChI=1S/C12H17O4PS2/c1-4-16-12(13)11(10-8-6-5-7-9-10)19-17(18,14-2)15-3/h5-9,11H,4H2,1-3H3
SMILES=CCOC(=O)C(C1=CC=CC=C1)SP(=S)(OC)OC
INSTRUMENT_TYPE=LC-ESI-QFT
INSTRUMENT=Exploris 240 Orbitrap Thermo Scientific
COLLISION_ENERGY=180 % (nominal)
FORMULA=C12H17O4PS2
PARENT=321.0379
SPLASH=splash10-0ufr-9000000000-a547b81a3956793406a6
NUM_PEAKS=10
COMPOUND_NAME=Phenthoate
SPECTRUM_ID=MSBNK-Eawag-EQ01129209
ADDUCT=[M+H]+
MS_LEVEL=MS2
PRECURSOR_MZ=321.0379
IONMODE=positive
NOMINAL_MASS=320
PARENT_MASS=320.0306
50.0151 206.0 
51.0229 823.0 
53.0386 331.0 
63.0229 58.0 
65.0385 276.0 
77.0385 999.0 
79.0542 340.0 
91.0541 146.0 
94.0411 69.0 
95.0491 376.0 
END IONS

BEGIN IONS
SYNON=3-(dimethoxyphosphinothioylsulfanylmethyl)-5-methoxy-1,3,4-thiadiazol-2-one
INCHIKEY=MEBQXILRKZHVCX-UHFFFAOYSA-N
INCHI=InChI=1S/C6H11N2O4PS3/c1-10-5-7-8(6(9)16-5)4-15-13(14,11-2)12-3/h4H2,1-3H3
SMILES=O=C1SC(=N/N1CSP(=S)(OC)OC)\OC
INSTRUMENT_TYPE=LC-ESI-QFT
INSTRUMENT=Q Exactive Orbitrap Thermo Scientific
COLLISION_ENERGY=30 (nominal)
FORMULA=C6H11N2O4PS3
PARENT=302.9691
SPLASH=splash10-007a-9500000000-cb5a412b1b920d1588e8
NUM_PEAKS=7
COMPOUND_NAME=Methidathion
SPECTRUM_ID=MSBNK-Eawag-EQ309602
ADDUCT=[M+H]+
MS_LEVEL=MS2
PRECURSOR_MZ=302.9691
IONMODE=positive
NOMINAL_MASS=302
PARENT_MASS=301.96186
58.0288 155.0 
71.024 561.0 
85.0396 999.0 
103.0502 93.0 
117.066 1.0 
142.9927 1.0 
145.0067 932.0 
END IONS

BEGIN IONS
SYNON=3-[(butan-2-ylthio)-ethoxyphosphoryl]-2-thiazolidinone
INCHIKEY=DUFVKSUJRWYZQP-UHFFFAOYSA-N
INCHI=InChI=1S/C9H18NO3PS2/c1-4-8(3)16-14(12,13-5-2)10-6-7-15-9(10)11/h8H,4-7H2,1-3H3
SMILES=O=P(SC(CC)C)(OCC)N1C(=O)SCC1
INSTRUMENT_TYPE=LC-ESI-QFT
INSTRUMENT=Q Exactive Orbitrap Thermo Scientific
COLLISION_ENERGY=60 (nominal)
FORMULA=C9H18NO3PS2
PARENT=284.0538
SPLASH=splash10-0udi-0900000000-ae4704bd3afb80f2ccbe
NUM_PEAKS=21
COMPOUND_NAME=Fosthiazate
SPECTRUM_ID=MSBNK-Eawag-EQ305004
ADDUCT=[M+H]+
MS_LEVEL=MS2
PRECURSOR_MZ=284.0538
IONMODE=positive
NOMINAL_MASS=283
PARENT_MASS=283.04657
57.0699 3.0 
61.0106 18.0 
76.0215 12.0 
104.0164 999.0 
109.9998 1.0 
114.9611 14.0 
119.9934 14.0 
121.9822 6.0 
122.0267 1.0 
124.0155 2.0 
137.9593 47.0 
138.9434 1.0 
139.9563 17.0 
139.9928 4.0 
165.9719 7.0 
167.9876 1.0 
171.9647 5.0 
181.949 4.0 
183.9824 11.0 
199.9596 31.0 
227.991 1.0 
END IONS

BEGIN IONS
SYNON=(3,5-dimethyl-4-methylsulfanyl-phenyl) N-methylcarbamate
INCHIKEY=YFBPRJGDJKVWAH-UHFFFAOYSA-N
INCHI=InChI=1S/C11H15NO2S/c1-7-5-9(14-11(13)12-3)6-8(2)10(7)15-4/h5-6H,1-4H3,(H,12,13)
SMILES=O=C(Oc1cc(c(SC)c(c1)C)C)NC
INSTRUMENT_TYPE=LC-ESI-ITFT
INSTRUMENT=LTQ Orbitrap XL Thermo Scientific
COLLISION_ENERGY=45 % (nominal)
FORMULA=C11H15NO2S
PARENT=226.0896
SPLASH=splash10-00di-0900000000-a82a7c0e3ad59018a771
NUM_PEAKS=14
COMPOUND_NAME=Methiocarb
SPECTRUM_ID=MSBNK-Eawag-EA293704
ADDUCT=[M+H]+
MS_LEVEL=MS2
PRECURSOR_MZ=226.0896
IONMODE=positive
NOMINAL_MASS=225
PARENT_MASS=225.0823
77.0386 11.0 
91.0543 34.0 
93.07 89.0 
95.0856 1.0 
105.0448 2.0 
107.0493 5.0 
109.0644 1.0 
121.0648 999.0 
122.0727 261.0 
123.0805 12.0 
141.0734 4.0 
153.037 10.0 
154.0448 10.0 
169.0684 353.0 
END IONS

BEGIN IONS
SYNON=[amino(methylsulfanyl)phosphoryl]oxymethane
INCHIKEY=NNKVPIKMPCQWCG-UHFFFAOYSA-N
INCHI=InChI=1S/C2H8NO2PS/c1-5-6(3,4)7-2/h1-2H3,(H2,3,4)
SMILES=COP(=O)(N)SC
INSTRUMENT_TYPE=LC-ESI-QFT
INSTRUMENT=Exploris 240 Orbitrap Thermo Scientific
COLLISION_ENERGY=180 % (nominal)
FORMULA=C2H8NO2PS
PARENT=142.0086
SPLASH=splash10-0002-9000000000-af47ba4ad9b8b2711990
NUM_PEAKS=9
COMPOUND_NAME=Methamidophos
SPECTRUM_ID=MSBNK-Eawag-EQ01128009
ADDUCT=[M+H]+
MS_LEVEL=MS2
PRECURSOR_MZ=142.0086
IONMODE=positive
NOMINAL_MASS=141
PARENT_MASS=141.0013
44.9794 743.0 
45.9841 235.0 
46.9681 797.0 
46.995 999.0 
48.9837 26.0 
63.9947 744.0 
64.9787 35.0 
78.9945 167.0 
79.9894 39.0 
END IONS

BEGIN IONS
SYNON=3-(dimethoxyphosphinothioylsulfanylmethyl)-1,2,3-benzotriazin-4-one
INCHIKEY=CJJOSEISRRTUQB-UHFFFAOYSA-N
INCHI=InChI=1S/C10H12N3O3PS2/c1-15-17(18,16-2)19-7-13-10(14)8-5-3-4-6-9(8)11-12-13/h3-6H,7H2,1-2H3
SMILES=COP(=S)(OC)SCN1C(=O)C2=CC=CC=C2N=N1
INSTRUMENT_TYPE=LC-ESI-QFT
INSTRUMENT=Q Exactive Plus Orbitrap Thermo Scientific
COLLISION_ENERGY=90 (nominal)
FORMULA=C10H12N3O3PS2
PARENT=318.013
SPLASH=splash10-0kdj-9300000000-fcbcd29689bd230c9b9f
NUM_PEAKS=44
COMPOUND_NAME=Azinphos-methyl
SPECTRUM_ID=MSBNK-Eawag-EQ365506
ADDUCT=[M+H]+
MS_LEVEL=MS2
PRECURSOR_MZ=318.013
IONMODE=positive
NOMINAL_MASS=317
PARENT_MASS=317.00577
50.0152 116.0 
51.023 559.0 
52.0182 2.0 
53.0387 290.0 
55.0179 13.0 
59.9665 19.0 
62.0185 62.0 
62.9995 27.0 
63.023 2.0 
64.0308 4.0 
64.9787 2.0 
65.0386 11.0 
67.0543 23.0 
75.023 79.0 
76.0182 20.0 
77.0386 577.0 
78.0339 18.0 
78.0464 8.0 
78.9944 532.0 
81.0336 33.0 
92.0257 21.0 
92.037 5.0 
93.0102 37.0 
94.0414 17.0 
95.0493 999.0 
96.0028 14.0 
96.0445 24.0 
97.0051 17.0 
102.0339 86.0 
104.0496 129.0 
105.0336 96.0 
105.0449 620.0 
109.0648 2.0 
120.0446 28.0 
121.0109 3.0 
124.9824 19.0 
130.0402 124.0 
132.0445 14.0 
135.998 3.0 
137.0058 21.0 
142.9928 259.0 
151.9928 93.0 
167.0162 5.0 
167.9698 17.0 
END IONS

BEGIN IONS
SYNON=diethoxy-(2-isopropyl-6-methyl-pyrimidin-4-yl)oxy-thioxo-phosphorane
INCHIKEY=FHIVAFMUCKRCQO-UHFFFAOYSA-N
INCHI=InChI=1S/C12H21N2O3PS/c1-6-15-18(19,16-7-2)17-11-8-10(5)13-12(14-11)9(3)4/h8-9H,6-7H2,1-5H3
SMILES=O(c1nc(nc(c1)C)C(C)C)P(OCC)(OCC)=S
INSTRUMENT_TYPE=LC-ESI-ITFT
INSTRUMENT=LTQ Orbitrap XL Thermo Scientific
COLLISION_ENERGY=75 % (nominal)
FORMULA=C12H21N2O3PS
PARENT=305.1083
SPLASH=splash10-0uxs-4900000000-ce1c6d19b36209036e3a
NUM_PEAKS=17
COMPOUND_NAME=Diazinon
SPECTRUM_ID=MSBNK-Eawag-EA029306
ADDUCT=[M+H]+
MS_LEVEL=MS2
PRECURSOR_MZ=305.1083
IONMODE=positive
NOMINAL_MASS=304
PARENT_MASS=304.1011
58.995 14.0 
64.9788 11.0 
67.0417 11.0 
70.0652 110.0 
78.9401 11.0 
80.9737 34.0 
84.0444 354.0 
90.9942 8.0 
96.9509 611.0 
98.9843 84.0 
100.0216 656.0 
109.005 69.0 
114.9614 468.0 
153.1023 459.0 
154.0561 31.0 
167.0631 8.0 
169.0795 999.0 
END IONS

BEGIN IONS
SYNON=[amino(methylsulfanyl)phosphoryl]oxymethane
INCHIKEY=NNKVPIKMPCQWCG-UHFFFAOYSA-N
INCHI=InChI=1S/C2H8NO2PS/c1-5-6(3,4)7-2/h1-2H3,(H2,3,4)
SMILES=COP(=O)(N)SC
INSTRUMENT_TYPE=LC-ESI-QFT
INSTRUMENT=Exploris 240 Orbitrap Thermo Scientific
COLLISION_ENERGY=120 % (nominal)
FORMULA=C2H8NO2PS
PARENT=142.0086
SPLASH=splash10-0005-9000000000-82dbafa0d43a825589c6
NUM_PEAKS=12
COMPOUND_NAME=Methamidophos
SPECTRUM_ID=MSBNK-Eawag-EQ01128007
ADDUCT=[M+H]+
MS_LEVEL=MS2
PRECURSOR_MZ=142.0086
IONMODE=positive
NOMINAL_MASS=141
PARENT_MASS=141.0013
44.9793 256.0 
45.9841 23.0 
46.9681 163.0 
46.995 999.0 
62.0185 54.0 
63.9947 514.0 
64.9787 28.0 
78.9943 419.0 
79.9897 15.0 
94.0052 520.0 
109.9824 57.0 
124.9823 59.0 
END IONS

BEGIN IONS
SYNON=2-[butan-2-ylsulfanyl(ethoxy)phosphoryl]sulfanylbutane
INCHIKEY=KXRPCFINVWWFHQ-UHFFFAOYSA-N
INCHI=InChI=1S/C10H23O2PS2/c1-6-9(4)14-13(11,12-8-3)15-10(5)7-2/h9-10H,6-8H2,1-5H3
SMILES=CCC(C)SP(=O)(OCC)SC(C)CC
INSTRUMENT_TYPE=LC-ESI-QFT
INSTRUMENT=Exploris 240 Orbitrap Thermo Scientific
COLLISION_ENERGY=180 % (nominal)
FORMULA=C10H23O2PS2
PARENT=271.095
SPLASH=splash10-03fr-9000000000-49e932608cc3bba899a1
NUM_PEAKS=5
COMPOUND_NAME=Cadusafos
SPECTRUM_ID=MSBNK-Eawag-EQ01121209
ADDUCT=[M+H]+
MS_LEVEL=MS2
PRECURSOR_MZ=271.095
IONMODE=positive
NOMINAL_MASS=270
PARENT_MASS=270.0877
64.9787 999.0 
78.9402 541.0 
94.9174 356.0 
96.9508 332.0 
110.9667 43.0 
END IONS

BEGIN IONS
SYNON=N-[ethoxy-(3-methyl-4-methylsulfanylphenoxy)phosphoryl]propan-2-amine
INCHIKEY=ZCJPOPBZHLUFHF-UHFFFAOYSA-N
INCHI=InChI=1S/C13H22NO3PS/c1-6-16-18(15,14-10(2)3)17-12-7-8-13(19-5)11(4)9-12/h7-10H,6H2,1-5H3,(H,14,15)
SMILES=CCOP(=O)(NC(C)C)OC1=CC(=C(C=C1)SC)C
INSTRUMENT_TYPE=LC-ESI-QFT
INSTRUMENT=Exploris 240 Orbitrap Thermo Scientific
COLLISION_ENERGY=45 % (nominal)
FORMULA=C13H22NO3PS
PARENT=304.1131
SPLASH=splash10-014i-0090000000-592fac4f0bf31ce08efc
NUM_PEAKS=11
COMPOUND_NAME=Fenamiphos
SPECTRUM_ID=MSBNK-Eawag-EQ01124703
ADDUCT=[M+H]+
MS_LEVEL=MS2
PRECURSOR_MZ=304.1131
IONMODE=positive
NOMINAL_MASS=303
PARENT_MASS=303.1058
60.0807 69.0 
107.0492 7.0 
137.0418 7.0 
153.0368 12.0 
155.0524 37.0 
168.9866 7.0 
201.9847 43.0 
217.0081 999.0 
234.0348 165.0 
262.0662 7.0 
276.0819 21.0 
END IONS

BEGIN IONS
SYNON=methyl N-[methyl-[methyl-(1-methylsulfanylethylideneamino)oxycarbonylamino]sulfanylcarbamoyl]oxyethanimidothioate
INCHIKEY=XDOTVMNBCQVZKG-UHFFFAOYSA-N
INCHI=InChI=1S/C10H18N4O4S3/c1-7(19-5)11-17-9(15)13(3)21-14(4)10(16)18-12-8(2)20-6/h1-6H3
SMILES=CC(=NOC(=O)N(C)SN(C)C(=O)ON=C(C)SC)SC
INSTRUMENT_TYPE=LC-ESI-QFT
INSTRUMENT=Exploris 240 Orbitrap Thermo Scientific
COLLISION_ENERGY=15 % (nominal)
FORMULA=C10H18N4O4S3
PARENT=355.0563
SPLASH=splash10-000i-9500000000-2922752cb29125e3c090
NUM_PEAKS=10
COMPOUND_NAME=Thiodicarb
SPECTRUM_ID=MSBNK-Eawag-EQ01131401
ADDUCT=[M+H]+
MS_LEVEL=MS2
PRECURSOR_MZ=355.0563
IONMODE=positive
NOMINAL_MASS=354
PARENT_MASS=354.0490
65.0055 4.0 
78.9671 7.0 
88.0215 999.0 
91.0215 3.0 
106.0321 10.0 
107.9936 345.0 
122.0272 15.0 
149.0201 138.0 
163.0534 95.0 
190.9573 27.0 
END IONS

BEGIN IONS
SYNON=3-(diethoxyphosphinothioylsulfanylmethyl)-1,2,3-benzotriazin-4-one
INCHIKEY=RQVGAIADHNPSME-UHFFFAOYSA-N
INCHI=InChI=1S/C12H16N3O3PS2/c1-3-17-19(20,18-4-2)21-9-15-12(16)10-7-5-6-8-11(10)13-14-15/h5-8H,3-4,9H2,1-2H3
SMILES=CCOP(=S)(OCC)SCN1C(=O)C2=CC=CC=C2N=N1
INSTRUMENT_TYPE=LC-ESI-QFT
INSTRUMENT=Q Exactive Plus Orbitrap Thermo Scientific
COLLISION_ENERGY=180 (nominal)
FORMULA=C12H16N3O3PS2
PARENT=346.0443
SPLASH=splash10-0udi-9000000000-4eaf801edee378341b22
NUM_PEAKS=32
COMPOUND_NAME=Azinphos-ethyl
SPECTRUM_ID=MSBNK-Eawag-EQ365409
ADDUCT=[M+H]+
MS_LEVEL=MS2
PRECURSOR_MZ=346.0443
IONMODE=positive
NOMINAL_MASS=345
PARENT_MASS=345.03707
50.0152 628.0 
51.023 999.0 
52.0182 17.0 
52.0308 14.0 
53.0023 35.0 
53.0387 24.0 
53.9975 2.0 
57.9872 5.0 
59.9666 3.0 
62.0151 16.0 
62.9453 28.0 
63.023 45.0 
64.0307 2.0 
64.9788 623.0 
65.0386 158.0 
66.0101 23.0 
66.0464 3.0 
68.9794 186.0 
74.0151 102.0 
75.023 68.0 
76.0182 37.0 
76.0307 15.0 
77.0386 65.0 
78.9403 79.0 
78.9943 4.0 
81.9872 33.0 
82.9894 3.0 
95.0492 76.0 
96.951 21.0 
98.9843 29.0 
105.0448 55.0 
114.9614 162.0 
END IONS

BEGIN IONS
SYNON=diethoxy-(2-isopropyl-6-methyl-pyrimidin-4-yl)oxy-thioxo-phosphorane
INCHIKEY=FHIVAFMUCKRCQO-UHFFFAOYSA-N
INCHI=InChI=1S/C12H21N2O3PS/c1-6-15-18(19,16-7-2)17-11-8-10(5)13-12(14-11)9(3)4/h8-9H,6-7H2,1-5H3
SMILES=O(c1nc(nc(c1)C)C(C)C)P(OCC)(OCC)=S
INSTRUMENT_TYPE=LC-ESI-ITFT
INSTRUMENT=LTQ Orbitrap XL Thermo Scientific
COLLISION_ENERGY=30 % (nominal)
FORMULA=C12H21N2O3PS
PARENT=305.1083
SPLASH=splash10-0pvi-0905000000-89807ca393822677be3e
NUM_PEAKS=9
COMPOUND_NAME=Diazinon
SPECTRUM_ID=MSBNK-Eawag-EA029303
ADDUCT=[M+H]+
MS_LEVEL=MS2
PRECURSOR_MZ=305.1083
IONMODE=positive
NOMINAL_MASS=304
PARENT_MASS=304.1011
96.9507 35.0 
114.9613 22.0 
124.9824 14.0 
153.1023 537.0 
169.0795 959.0 
181.1335 35.0 
197.1087 5.0 
206.0938 6.0 
305.1082 999.0 
END IONS

BEGIN IONS
SYNON=(1E)-N-(methylcarbamoyloxy)ethanimidothioic acid methyl ester
INCHIKEY=UHXUZOCRWCRNSJ-QPJJXVBHSA-N
INCHI=InChI=1S/C5H10N2O2S/c1-4(10-3)7-9-5(8)6-2/h1-3H3,(H,6,8)/b7-4+
SMILES=C/C(=N\OC(=O)NC)SC
INSTRUMENT_TYPE=LC-ESI-ITFT
INSTRUMENT=LTQ Orbitrap XL Thermo Scientific
COLLISION_ENERGY=90 % (nominal)
FORMULA=C5H10N2O2S
PARENT=163.0536
SPLASH=splash10-05g0-9100000000-ef272eaa6dee90335521
NUM_PEAKS=7
COMPOUND_NAME=Methomyl
SPECTRUM_ID=MSBNK-Eawag-EA294207
ADDUCT=[M+H]+
MS_LEVEL=MS2
PRECURSOR_MZ=163.0536
IONMODE=positive
NOMINAL_MASS=162
PARENT_MASS=162.0463
56.0495 89.0 
58.0287 268.0 
61.0107 58.0 
71.9903 77.0 
72.9981 999.0 
88.0216 979.0 
106.0321 280.0 
END IONS

BEGIN IONS
SYNON=ethyl 3-[[(2,2-dimethyl-3H-1-benzofuran-7-yl)oxycarbonyl-methylamino]sulfanyl-propan-2-ylamino]propanoate
INCHIKEY=FYZBOYWSHKHDMT-UHFFFAOYSA-N
INCHI=InChI=1S/C20H30N2O5S/c1-7-25-17(23)11-12-22(14(2)3)28-21(6)19(24)26-16-10-8-9-15-13-20(4,5)27-18(15)16/h8-10,14H,7,11-13H2,1-6H3
SMILES=CCOC(=O)CCN(C(C)C)SN(C)C(=O)OC1=CC=CC2=C1OC(C2)(C)C
INSTRUMENT_TYPE=LC-ESI-QFT
INSTRUMENT=Exploris 240 Orbitrap Thermo Scientific
COLLISION_ENERGY=30 % (nominal)
FORMULA=C20H30N2O5S
PARENT=411.1948
SPLASH=splash10-0002-0910000000-cb4271cb3771d44caadb
NUM_PEAKS=12
COMPOUND_NAME=Benfuracarb
SPECTRUM_ID=MSBNK-Eawag-EQ01120502
ADDUCT=[M+H]+
MS_LEVEL=MS2
PRECURSOR_MZ=411.1948
IONMODE=positive
NOMINAL_MASS=410
PARENT_MASS=410.1875
73.0285 11.0 
90.0372 109.0 
101.0598 28.0 
102.0008 45.0 
130.086 4.0 
131.0166 7.0 
144.0478 82.0 
148.0428 43.0 
158.1176 189.0 
190.0897 129.0 
195.0475 999.0 
252.0692 288.0 
END IONS

BEGIN IONS
SYNON=ethyl 2-diethoxyphosphinothioyloxy-5-methylpyrazolo[1,5-a]pyrimidine-6-carboxylate
INCHIKEY=JOOMJVFZQRQWKR-UHFFFAOYSA-N
INCHI=InChI=1S/C14H20N3O5PS/c1-5-19-14(18)11-9-17-12(15-10(11)4)8-13(16-17)22-23(24,20-6-2)21-7-3/h8-9H,5-7H2,1-4H3
SMILES=CCOC(=O)C1=CN2C(=CC(=N2)OP(=S)(OCC)OCC)N=C1C
INSTRUMENT_TYPE=LC-ESI-QFT
INSTRUMENT=Exploris 240 Orbitrap Thermo Scientific
COLLISION_ENERGY=45 % (nominal)
FORMULA=C14H20N3O5PS
PARENT=374.0934
SPLASH=splash10-00dl-0590000000-d8ab0ac28095b900f8d9
NUM_PEAKS=25
COMPOUND_NAME=Pyrazophos
SPECTRUM_ID=MSBNK-Eawag-EQ01139403
ADDUCT=[M+H]+
MS_LEVEL=MS2
PRECURSOR_MZ=374.0934
IONMODE=positive
NOMINAL_MASS=373
PARENT_MASS=373.0861
64.9788 12.0 
93.01 31.0 
96.9507 39.0 
113.9534 58.0 
114.9612 37.0 
124.9821 9.0 
125.9901 24.0 
142.9924 19.0 
170.0162 21.0 
176.0454 88.0 
177.0533 50.0 
192.0221 18.0 
194.056 585.0 
205.0847 81.0 
210.033 137.0 
211.0536 85.0 
222.0872 999.0 
236.0482 53.0 
238.0645 195.0 
271.9888 21.0 
300.0205 33.0 
318.031 9.0 
328.0507 8.0 
346.0627 17.0 
374.0922 6.0 
END IONS

BEGIN IONS
SYNON=3-(dimethoxyphosphinothioylsulfanylmethyl)-5-methoxy-1,3,4-thiadiazol-2-one
INCHIKEY=MEBQXILRKZHVCX-UHFFFAOYSA-N
INCHI=InChI=1S/C6H11N2O4PS3/c1-10-5-7-8(6(9)16-5)4-15-13(14,11-2)12-3/h4H2,1-3H3
SMILES=O=C1SC(=N/N1CSP(=S)(OC)OC)\OC
INSTRUMENT_TYPE=LC-ESI-QFT
INSTRUMENT=Q Exactive Orbitrap Thermo Scientific
COLLISION_ENERGY=60 (nominal)
FORMULA=C6H11N2O4PS3
PARENT=302.9691
SPLASH=splash10-059i-9000000000-c85e10814af7fd52e1f6
NUM_PEAKS=7
COMPOUND_NAME=Methidathion
SPECTRUM_ID=MSBNK-Eawag-EQ309604
ADDUCT=[M+H]+
MS_LEVEL=MS2
PRECURSOR_MZ=302.9691
IONMODE=positive
NOMINAL_MASS=302
PARENT_MASS=301.96186
58.0288 568.0 
71.024 623.0 
85.0396 999.0 
103.0502 118.0 
117.0658 5.0 
142.993 4.0 
145.0066 50.0 
END IONS

BEGIN IONS
SYNON=N,N-dimethylcarbamic acid [2-(dimethylamino)-5,6-dimethyl-4-pyrimidinyl] ester
INCHIKEY=YFGYUFNIOHWBOB-UHFFFAOYSA-N
INCHI=InChI=1S/C11H18N4O2/c1-7-8(2)12-10(14(3)4)13-9(7)17-11(16)15(5)6/h1-6H3
SMILES=n(c(c(C)c1OC(=O)N(C)C)C)c(n1)N(C)C
INSTRUMENT_TYPE=LC-ESI-ITFT
INSTRUMENT=LTQ Orbitrap XL Thermo Scientific
COLLISION_ENERGY=60 % (nominal)
FORMULA=C11H18N4O2
PARENT=239.1503
SPLASH=splash10-00di-9500000000-162981c84f076e6f8c42
NUM_PEAKS=13
COMPOUND_NAME=Pirimicarb
SPECTRUM_ID=MSBNK-Eawag-EA271105
ADDUCT=[M+H]+
MS_LEVEL=MS2
PRECURSOR_MZ=239.1503
IONMODE=positive
NOMINAL_MASS=238
PARENT_MASS=238.1430
72.0444 999.0 
83.0239 16.0 
85.076 77.0 
109.076 47.0 
137.0709 65.0 
138.0788 22.0 
150.1026 50.0 
152.082 10.0 
166.0976 2.0 
167.1055 28.0 
168.1128 1.0 
182.1287 394.0 
195.1607 16.0 
END IONS

BEGIN IONS
SYNON=(3,5-dimethyl-4-methylsulfanyl-phenyl) N-methylcarbamate
INCHIKEY=YFBPRJGDJKVWAH-UHFFFAOYSA-N
INCHI=InChI=1S/C11H15NO2S/c1-7-5-9(14-11(13)12-3)6-8(2)10(7)15-4/h5-6H,1-4H3,(H,12,13)
SMILES=O=C(Oc1cc(c(SC)c(c1)C)C)NC
INSTRUMENT_TYPE=LC-ESI-ITFT
INSTRUMENT=LTQ Orbitrap XL Thermo Scientific
COLLISION_ENERGY=60 % (nominal)
FORMULA=C11H15NO2S
PARENT=226.0896
SPLASH=splash10-00di-1900000000-30e05eb39be8a3eb30fb
NUM_PEAKS=20
COMPOUND_NAME=Methiocarb
SPECTRUM_ID=MSBNK-Eawag-EA293711
ADDUCT=[M+H]+
MS_LEVEL=MS2
PRECURSOR_MZ=226.0896
IONMODE=positive
NOMINAL_MASS=225
PARENT_MASS=225.0823
53.0386 1.0 
67.0543 2.0 
77.0386 35.0 
79.0544 1.0 
91.0543 80.0 
93.07 166.0 
94.0776 1.0 
95.0491 1.0 
95.0854 1.0 
103.0542 1.0 
105.0448 11.0 
107.0492 30.0 
109.0648 3.0 
121.0649 999.0 
122.0726 435.0 
123.0804 13.0 
141.0732 2.0 
153.0369 11.0 
154.0447 26.0 
169.0683 49.0 
END IONS

BEGIN IONS
SYNON=(1E)-N-(methylcarbamoyloxy)ethanimidothioic acid methyl ester
INCHIKEY=UHXUZOCRWCRNSJ-QPJJXVBHSA-N
INCHI=InChI=1S/C5H10N2O2S/c1-4(10-3)7-9-5(8)6-2/h1-3H3,(H,6,8)/b7-4+
SMILES=C/C(=N\OC(=O)NC)SC
INSTRUMENT_TYPE=LC-ESI-ITFT
INSTRUMENT=LTQ Orbitrap XL Thermo Scientific
COLLISION_ENERGY=30 % (nominal)
FORMULA=C5H10N2O2S
PARENT=163.0536
SPLASH=splash10-052r-9500000000-b725712ec0d1c8f22d6d
NUM_PEAKS=13
COMPOUND_NAME=Methomyl
SPECTRUM_ID=MSBNK-Eawag-EA294209
ADDUCT=[M+H]+
MS_LEVEL=MS2
PRECURSOR_MZ=163.0536
IONMODE=positive
NOMINAL_MASS=162
PARENT_MASS=162.0463
55.0543 1.0 
56.0494 7.0 
57.0698 3.0 
58.0287 38.0 
61.0106 5.0 
65.0056 43.0 
72.9981 4.0 
88.0215 999.0 
89.0596 10.0 
106.0321 655.0 
107.0703 3.0 
122.0272 2.0 
163.0539 1.0 
END IONS

BEGIN IONS
SYNON=3-(diethoxyphosphinothioylsulfanylmethyl)-1,2,3-benzotriazin-4-one
INCHIKEY=RQVGAIADHNPSME-UHFFFAOYSA-N
INCHI=InChI=1S/C12H16N3O3PS2/c1-3-17-19(20,18-4-2)21-9-15-12(16)10-7-5-6-8-11(10)13-14-15/h5-8H,3-4,9H2,1-2H3
SMILES=CCOP(=S)(OCC)SCN1C(=O)C2=CC=CC=C2N=N1
INSTRUMENT_TYPE=LC-ESI-QFT
INSTRUMENT=Q Exactive Plus Orbitrap Thermo Scientific
COLLISION_ENERGY=60 (nominal)
FORMULA=C12H16N3O3PS2
PARENT=346.0443
SPLASH=splash10-08g0-2900000000-fbfadb8916f16d66c19d
NUM_PEAKS=53
COMPOUND_NAME=Azinphos-ethyl
SPECTRUM_ID=MSBNK-Eawag-EQ365404
ADDUCT=[M+H]+
MS_LEVEL=MS2
PRECURSOR_MZ=346.0443
IONMODE=positive
NOMINAL_MASS=345
PARENT_MASS=345.03707
50.0152 9.0 
51.023 33.0 
53.0386 90.0 
55.0179 5.0 
64.9787 19.0 
65.0386 3.0 
67.0542 1.0 
77.0386 115.0 
78.0339 5.0 
78.9403 2.0 
80.9736 1.0 
81.0335 12.0 
94.0414 4.0 
95.0492 333.0 
96.0445 4.0 
96.9509 128.0 
98.9843 13.0 
102.0338 7.0 
103.0544 4.0 
104.0495 180.0 
105.0336 202.0 
105.0448 187.0 
108.0028 1.0 
109.0108 151.0 
110.9664 1.0 
114.9614 999.0 
120.0446 11.0 
121.0105 2.0 
121.0285 4.0 
121.0651 1.0 
123.0263 4.0 
124.9822 4.0 
126.9437 5.0 
128.9769 10.0 
130.0402 59.0 
131.0494 6.0 
132.0445 93.0 
132.972 5.0 
135.998 15.0 
136.0217 10.0 
137.0057 518.0 
142.9386 109.0 
148.0217 11.0 
152.9829 17.0 
153.0006 39.0 
154.9716 15.0 
166.0324 1.0 
167.97 6.0 
168.9777 6.0 
170.9487 17.0 
172.9825 12.0 
214.9386 4.0 
216.9721 1.0 
END IONS

BEGIN IONS
SYNON=N,N-dimethylcarbamic acid [2-(dimethylamino)-5,6-dimethyl-4-pyrimidinyl] ester
INCHIKEY=YFGYUFNIOHWBOB-UHFFFAOYSA-N
INCHI=InChI=1S/C11H18N4O2/c1-7-8(2)12-10(14(3)4)13-9(7)17-11(16)15(5)6/h1-6H3
SMILES=n(c(c(C)c1OC(=O)N(C)C)C)c(n1)N(C)C
INSTRUMENT_TYPE=LC-ESI-ITFT
INSTRUMENT=LTQ Orbitrap XL Thermo Scientific
COLLISION_ENERGY=90 % (nominal)
FORMULA=C11H18N4O2
PARENT=239.1503
SPLASH=splash10-00di-9100000000-8d8d31edc53ef900d9cb
NUM_PEAKS=20
COMPOUND_NAME=Pirimicarb
SPECTRUM_ID=MSBNK-Eawag-EA271113
ADDUCT=[M+H]+
MS_LEVEL=MS2
PRECURSOR_MZ=239.1503
IONMODE=positive
NOMINAL_MASS=238
PARENT_MASS=238.1430
56.013 5.0 
58.065 2.0 
69.0573 4.0 
71.0604 3.0 
72.0444 999.0 
83.024 27.0 
85.0761 97.0 
109.0761 102.0 
123.0553 2.0 
124.0631 9.0 
137.071 20.0 
138.0788 39.0 
139.0866 2.0 
150.1027 11.0 
152.0819 33.0 
156.0531 5.0 
166.0975 3.0 
167.1053 4.0 
180.1132 1.0 
182.1287 13.0 
END IONS

BEGIN IONS
SYNON=N,N-dimethylcarbamic acid [2-(dimethylamino)-5,6-dimethyl-4-pyrimidinyl] ester
INCHIKEY=YFGYUFNIOHWBOB-UHFFFAOYSA-N
INCHI=InChI=1S/C11H18N4O2/c1-7-8(2)12-10(14(3)4)13-9(7)17-11(16)15(5)6/h1-6H3
SMILES=n(c(c(C)c1OC(=O)N(C)C)C)c(n1)N(C)C
INSTRUMENT_TYPE=LC-ESI-ITFT
INSTRUMENT=LTQ Orbitrap XL Thermo Scientific
COLLISION_ENERGY=30 % (nominal)
FORMULA=C11H18N4O2
PARENT=239.1503
SPLASH=splash10-0019-4790000000-f3492abb5993c78acac6
NUM_PEAKS=9
COMPOUND_NAME=Pirimicarb
SPECTRUM_ID=MSBNK-Eawag-EA271109
ADDUCT=[M+H]+
MS_LEVEL=MS2
PRECURSOR_MZ=239.1503
IONMODE=positive
NOMINAL_MASS=238
PARENT_MASS=238.1430
72.0445 480.0 
137.0711 1.0 
150.1028 1.0 
166.0973 5.0 
167.1048 1.0 
182.1289 703.0 
194.0929 1.0 
195.1605 61.0 
239.1505 999.0 
END IONS

BEGIN IONS
SYNON=(1E)-N-(methylcarbamoyloxy)ethanimidothioic acid methyl ester
INCHIKEY=UHXUZOCRWCRNSJ-QPJJXVBHSA-N
INCHI=InChI=1S/C5H10N2O2S/c1-4(10-3)7-9-5(8)6-2/h1-3H3,(H,6,8)/b7-4+
SMILES=C/C(=N\OC(=O)NC)SC
INSTRUMENT_TYPE=LC-ESI-ITFT
INSTRUMENT=LTQ Orbitrap XL Thermo Scientific
COLLISION_ENERGY=35 % (nominal)
FORMULA=C5H10N2O2S
PARENT=163.0536
SPLASH=splash10-00y0-9700000000-fb58e6c723ee86fa0521
NUM_PEAKS=9
COMPOUND_NAME=Methomyl
SPECTRUM_ID=MSBNK-Eawag-EA294201
ADDUCT=[M+H]+
MS_LEVEL=MS2
PRECURSOR_MZ=163.0536
IONMODE=positive
NOMINAL_MASS=162
PARENT_MASS=162.0463
65.0056 637.0 
72.998 1.0 
78.0372 2.0 
88.0216 742.0 
89.0597 35.0 
106.0321 197.0 
107.0702 43.0 
118.9786 2.0 
122.0271 999.0 
END IONS

BEGIN IONS
SYNON=[3-(dimethylaminomethylideneamino)phenyl] N-methylcarbamate
INCHIKEY=RMFNNCGOSPBBAD-UHFFFAOYSA-N
INCHI=InChI=1S/C11H15N3O2/c1-12-11(15)16-10-6-4-5-9(7-10)13-8-14(2)3/h4-8H,1-3H3,(H,12,15)
SMILES=CNC(=O)OC1=CC=CC(=C1)N=CN(C)C
INSTRUMENT_TYPE=LC-ESI-QFT
INSTRUMENT=Exploris 240 Orbitrap Thermo Scientific
COLLISION_ENERGY=120 % (nominal)
FORMULA=C11H15N3O2
PARENT=222.1237
SPLASH=splash10-014i-9500000000-9a53c4240638fac90d82
NUM_PEAKS=6
COMPOUND_NAME=Formetanate
SPECTRUM_ID=MSBNK-Eawag-EQ01126607
ADDUCT=[M+H]+
MS_LEVEL=MS2
PRECURSOR_MZ=222.1237
IONMODE=positive
NOMINAL_MASS=221
PARENT_MASS=221.1164
65.0386 999.0 
93.0335 142.0 
109.0524 30.0 
111.0442 207.0 
120.0441 89.0 
121.0398 321.0 
END IONS

BEGIN IONS
SYNON=(2,2-dimethyl-3H-1-benzofuran-7-yl) N-(dibutylamino)sulfanyl-N-methylcarbamate
INCHIKEY=JLQUFIHWVLZVTJ-UHFFFAOYSA-N
INCHI=InChI=1S/C20H32N2O3S/c1-6-8-13-22(14-9-7-2)26-21(5)19(23)24-17-12-10-11-16-15-20(3,4)25-18(16)17/h10-12H,6-9,13-15H2,1-5H3
SMILES=CCCCN(CCCC)SN(C)C(=O)OC1=CC=CC2=C1OC(C2)(C)C
INSTRUMENT_TYPE=LC-ESI-QFT
INSTRUMENT=Exploris 240 Orbitrap Thermo Scientific
COLLISION_ENERGY=45 % (nominal)
FORMULA=C20H32N2O3S
PARENT=381.2206
SPLASH=splash10-016r-3900000000-f9fd54d2cb85124f1264
NUM_PEAKS=12
COMPOUND_NAME=Carbosulfan
SPECTRUM_ID=MSBNK-Eawag-EQ01121403
ADDUCT=[M+H]+
MS_LEVEL=MS2
PRECURSOR_MZ=381.2206
IONMODE=positive
NOMINAL_MASS=380
PARENT_MASS=380.2134
57.0699 40.0 
62.0058 44.0 
72.0808 31.0 
76.0215 545.0 
86.0967 57.0 
104.0526 103.0 
118.0684 999.0 
123.0439 72.0 
128.1434 323.0 
160.1154 219.0 
165.0911 131.0 
167.0531 22.0 
END IONS

BEGIN IONS
SYNON=dimethoxy-sulfanylidene-(3,5,6-trichloropyridin-2-yl)oxy-{5}-phosphane
INCHIKEY=HRBKVYFZANMGRE-UHFFFAOYSA-N
INCHI=InChI=1S/C7H7Cl3NO3PS/c1-12-15(16,13-2)14-7-5(9)3-4(8)6(10)11-7/h3H,1-2H3
SMILES=Clc1c(OP(=S)(OC)OC)nc(Cl)c(Cl)c1
INSTRUMENT_TYPE=LC-ESI-ITFT
INSTRUMENT=LTQ Orbitrap XL Thermo Scientific
COLLISION_ENERGY=90 % (nominal)
FORMULA=C7H7Cl3NO3PS
PARENT=321.9023
SPLASH=splash10-004i-6900000000-4b8fa9b82b85330ae1ae
NUM_PEAKS=13
COMPOUND_NAME=Chlorpyrifos-methyl
SPECTRUM_ID=MSBNK-Eawag-EA295107
ADDUCT=[M+H]+
MS_LEVEL=MS2
PRECURSOR_MZ=321.9023
IONMODE=positive
NOMINAL_MASS=321
PARENT_MASS=320.8950
62.0185 54.0 
78.9943 999.0 
93.01 106.0 
97.0048 28.0 
106.9451 72.0 
124.9821 476.0 
127.0154 152.0 
142.9926 439.0 
150.9167 51.0 
167.9169 103.0 
176.9201 267.0 
179.9156 29.0 
211.8892 48.0 
END IONS

BEGIN IONS
SYNON=2,2,2-trichloro-1-dimethoxyphosphorylethanol
INCHIKEY=NFACJZMKEDPNKN-UHFFFAOYSA-N
INCHI=InChI=1S/C4H8Cl3O4P/c1-10-12(9,11-2)3(8)4(5,6)7/h3,8H,1-2H3
SMILES=COP(=O)(C(C(Cl)(Cl)Cl)O)OC
INSTRUMENT_TYPE=LC-ESI-QFT
INSTRUMENT=Exploris 240 Orbitrap Thermo Scientific
COLLISION_ENERGY=15 % (nominal)
FORMULA=C4H8Cl3O4P
PARENT=256.9299
SPLASH=splash10-0a4i-0190000000-26ad719644f168a24a51
NUM_PEAKS=5
COMPOUND_NAME=Trichlorfon
SPECTRUM_ID=MSBNK-Eawag-EQ01131801
ADDUCT=[M+H]+
MS_LEVEL=MS2
PRECURSOR_MZ=256.9299
IONMODE=positive
NOMINAL_MASS=256
PARENT_MASS=255.9226
109.0049 45.0 
127.0154 109.0 
144.9812 9.0 
220.9532 408.0 
256.9298 999.0 
END IONS

BEGIN IONS
SYNON=dimethoxy-sulfanylidene-(3,5,6-trichloropyridin-2-yl)oxy-{5}-phosphane
INCHIKEY=HRBKVYFZANMGRE-UHFFFAOYSA-N
INCHI=InChI=1S/C7H7Cl3NO3PS/c1-12-15(16,13-2)14-7-5(9)3-4(8)6(10)11-7/h3H,1-2H3
SMILES=Clc1c(OP(=S)(OC)OC)nc(Cl)c(Cl)c1
INSTRUMENT_TYPE=LC-ESI-ITFT
INSTRUMENT=LTQ Orbitrap XL Thermo Scientific
COLLISION_ENERGY=15 % (nominal)
FORMULA=C7H7Cl3NO3PS
PARENT=321.9023
SPLASH=splash10-00di-0109000000-0753de776e7c1b86d2d8
NUM_PEAKS=8
COMPOUND_NAME=Chlorpyrifos-methyl
SPECTRUM_ID=MSBNK-Eawag-EA295102
ADDUCT=[M+H]+
MS_LEVEL=MS2
PRECURSOR_MZ=321.9023
IONMODE=positive
NOMINAL_MASS=321
PARENT_MASS=320.8950
78.9941 2.0 
109.0045 2.0 
110.9668 1.0 
124.9821 94.0 
127.0157 3.0 
142.9927 70.0 
289.8754 70.0 
321.9025 999.0 
END IONS

BEGIN IONS
SYNON=dimethoxy-sulfanylidene-(3,5,6-trichloropyridin-2-yl)oxy-{5}-phosphane
INCHIKEY=HRBKVYFZANMGRE-UHFFFAOYSA-N
INCHI=InChI=1S/C7H7Cl3NO3PS/c1-12-15(16,13-2)14-7-5(9)3-4(8)6(10)11-7/h3H,1-2H3
SMILES=Clc1c(OP(=S)(OC)OC)nc(Cl)c(Cl)c1
INSTRUMENT_TYPE=LC-ESI-ITFT
INSTRUMENT=LTQ Orbitrap XL Thermo Scientific
COLLISION_ENERGY=35 % (nominal)
FORMULA=C7H7Cl3NO3PS
PARENT=321.9023
SPLASH=splash10-000i-0090000000-ee84df3012c5b8c2f0cd
NUM_PEAKS=5
COMPOUND_NAME=Chlorpyrifos-methyl
SPECTRUM_ID=MSBNK-Eawag-EA295101
ADDUCT=[M+H]+
MS_LEVEL=MS2
PRECURSOR_MZ=321.9023
IONMODE=positive
NOMINAL_MASS=321
PARENT_MASS=320.8950
109.005 1.0 
124.9821 19.0 
127.0153 2.0 
211.888 2.0 
289.8761 999.0 
END IONS

BEGIN IONS
SYNON=diethoxy-(2-isopropyl-6-methyl-pyrimidin-4-yl)oxy-thioxo-phosphorane
INCHIKEY=FHIVAFMUCKRCQO-UHFFFAOYSA-N
INCHI=InChI=1S/C12H21N2O3PS/c1-6-15-18(19,16-7-2)17-11-8-10(5)13-12(14-11)9(3)4/h8-9H,6-7H2,1-5H3
SMILES=O(c1nc(nc(c1)C)C(C)C)P(OCC)(OCC)=S
INSTRUMENT_TYPE=LC-ESI-ITFT
INSTRUMENT=LTQ Orbitrap XL Thermo Scientific
COLLISION_ENERGY=60 % (nominal)
FORMULA=C12H21N2O3PS
PARENT=305.1083
SPLASH=splash10-0gb9-1900000000-3772ba2a27f51803e58a
NUM_PEAKS=13
COMPOUND_NAME=Diazinon
SPECTRUM_ID=MSBNK-Eawag-EA029305
ADDUCT=[M+H]+
MS_LEVEL=MS2
PRECURSOR_MZ=305.1083
IONMODE=positive
NOMINAL_MASS=304
PARENT_MASS=304.1011
70.065 15.0 
84.0443 82.0 
96.9507 254.0 
98.9842 17.0 
100.0216 121.0 
109.0048 35.0 
114.9613 197.0 
124.9823 5.0 
153.1022 506.0 
154.0562 6.0 
169.0794 999.0 
181.1331 3.0 
231.0338 4.0 
END IONS

BEGIN IONS
SYNON=3-(diethoxyphosphinothioylsulfanylmethyl)-1,2,3-benzotriazin-4-one
INCHIKEY=RQVGAIADHNPSME-UHFFFAOYSA-N
INCHI=InChI=1S/C12H16N3O3PS2/c1-3-17-19(20,18-4-2)21-9-15-12(16)10-7-5-6-8-11(10)13-14-15/h5-8H,3-4,9H2,1-2H3
SMILES=CCOP(=S)(OCC)SCN1C(=O)C2=CC=CC=C2N=N1
INSTRUMENT_TYPE=LC-ESI-QFT
INSTRUMENT=Q Exactive Plus Orbitrap Thermo Scientific
COLLISION_ENERGY=120 (nominal)
FORMULA=C12H16N3O3PS2
PARENT=346.0443
SPLASH=splash10-0ik9-9400000000-037daa2e1da25c81b59d
NUM_PEAKS=48
COMPOUND_NAME=Azinphos-ethyl
SPECTRUM_ID=MSBNK-Eawag-EQ365407
ADDUCT=[M+H]+
MS_LEVEL=MS2
PRECURSOR_MZ=346.0443
IONMODE=positive
NOMINAL_MASS=345
PARENT_MASS=345.03707
50.0152 211.0 
51.023 871.0 
52.0308 3.0 
53.0023 5.0 
53.0386 107.0 
55.0179 4.0 
62.0151 4.0 
62.9454 4.0 
63.023 14.0 
64.0308 2.0 
64.9788 659.0 
65.0387 437.0 
68.9794 80.0 
74.015 16.0 
75.023 93.0 
76.0183 25.0 
76.0307 2.0 
77.0386 265.0 
78.0339 13.0 
78.0465 12.0 
78.9403 111.0 
78.9945 5.0 
81.0336 13.0 
81.9873 10.0 
82.9895 3.0 
82.995 9.0 
91.0544 3.0 
92.0257 8.0 
94.0413 3.0 
95.0493 354.0 
96.0445 5.0 
96.9509 106.0 
97.0109 11.0 
98.9843 31.0 
102.0339 22.0 
104.0496 74.0 
105.0449 217.0 
108.0029 74.0 
109.0108 324.0 
110.9665 3.0 
114.9615 999.0 
121.0108 3.0 
128.9771 12.0 
130.0401 19.0 
132.9722 5.0 
135.9978 3.0 
137.0057 8.0 
153.0008 3.0 
END IONS

BEGIN IONS
SYNON=3-[(butan-2-ylthio)-ethoxyphosphoryl]-2-thiazolidinone
INCHIKEY=DUFVKSUJRWYZQP-UHFFFAOYSA-N
INCHI=InChI=1S/C9H18NO3PS2/c1-4-8(3)16-14(12,13-5-2)10-6-7-15-9(10)11/h8H,4-7H2,1-3H3
SMILES=O=P(SC(CC)C)(OCC)N1C(=O)SCC1
INSTRUMENT_TYPE=LC-ESI-QFT
INSTRUMENT=Q Exactive Orbitrap Thermo Scientific
COLLISION_ENERGY=15 (nominal)
FORMULA=C9H18NO3PS2
PARENT=284.0538
SPLASH=splash10-004i-0390000000-a3bb15bd802d47eda9c2
NUM_PEAKS=10
COMPOUND_NAME=Fosthiazate
SPECTRUM_ID=MSBNK-Eawag-EQ305001
ADDUCT=[M+H]+
MS_LEVEL=MS2
PRECURSOR_MZ=284.0538
IONMODE=positive
NOMINAL_MASS=283
PARENT_MASS=283.04657
57.0699 1.0 
61.0106 1.0 
96.9505 1.0 
104.0163 366.0 
119.9932 3.0 
167.9876 2.0 
181.0441 1.0 
199.9595 75.0 
227.9907 999.0 
284.0534 51.0 
END IONS

BEGIN IONS
SYNON=2-(dimethoxyphosphinothioylthio)-N-methylacetamide
INCHIKEY=MCWXGJITAZMZEV-UHFFFAOYSA-N
INCHI=InChI=1S/C5H12NO3PS2/c1-6-5(7)4-12-10(11,8-2)9-3/h4H2,1-3H3,(H,6,7)
SMILES=P(SCC(NC)=O)(OC)(OC)=S
INSTRUMENT_TYPE=LC-ESI-ITFT
INSTRUMENT=LTQ Orbitrap XL Thermo Scientific
COLLISION_ENERGY=35 % (nominal)
FORMULA=C5H12NO3PS2
PARENT=230.0069
SPLASH=splash10-0002-0900000000-3ba92d233910573c9c42
NUM_PEAKS=6
COMPOUND_NAME=Dimethoate
SPECTRUM_ID=MSBNK-Eawag-EA276114
ADDUCT=[M+H]+
MS_LEVEL=MS2
PRECURSOR_MZ=230.0069
IONMODE=positive
NOMINAL_MASS=229
PARENT_MASS=228.9996
88.0215 8.0 
124.9819 7.0 
156.9539 1.0 
170.9698 59.0 
197.9807 9.0 
198.9648 999.0 
END IONS

BEGIN IONS
SYNON=dimethoxy-sulfanylidene-(3,5,6-trichloropyridin-2-yl)oxy-{5}-phosphane
INCHIKEY=HRBKVYFZANMGRE-UHFFFAOYSA-N
INCHI=InChI=1S/C7H7Cl3NO3PS/c1-12-15(16,13-2)14-7-5(9)3-4(8)6(10)11-7/h3H,1-2H3
SMILES=Clc1c(OP(=S)(OC)OC)nc(Cl)c(Cl)c1
INSTRUMENT_TYPE=LC-ESI-ITFT
INSTRUMENT=LTQ Orbitrap XL Thermo Scientific
COLLISION_ENERGY=75 % (nominal)
FORMULA=C7H7Cl3NO3PS
PARENT=321.9023
SPLASH=splash10-00bc-3900000000-ef50dc0f1efbf994b9dd
NUM_PEAKS=17
COMPOUND_NAME=Chlorpyrifos-methyl
SPECTRUM_ID=MSBNK-Eawag-EA295112
ADDUCT=[M+H]+
MS_LEVEL=MS2
PRECURSOR_MZ=321.9023
IONMODE=positive
NOMINAL_MASS=321
PARENT_MASS=320.8950
62.0185 52.0 
78.9943 872.0 
93.0101 51.0 
97.0045 14.0 
106.9447 25.0 
109.005 23.0 
110.9665 18.0 
124.9821 961.0 
127.0155 292.0 
142.9926 999.0 
150.9171 49.0 
167.917 69.0 
176.9201 115.0 
179.9166 41.0 
197.9275 32.0 
211.889 187.0 
229.8995 47.0 
END IONS

BEGIN IONS
SYNON=(1E)-N-(methylcarbamoyloxy)ethanimidothioic acid methyl ester
INCHIKEY=UHXUZOCRWCRNSJ-QPJJXVBHSA-N
INCHI=InChI=1S/C5H10N2O2S/c1-4(10-3)7-9-5(8)6-2/h1-3H3,(H,6,8)/b7-4+
SMILES=C/C(=N\OC(=O)NC)SC
INSTRUMENT_TYPE=LC-ESI-ITFT
INSTRUMENT=LTQ Orbitrap XL Thermo Scientific
COLLISION_ENERGY=45 % (nominal)
FORMULA=C5H10N2O2S
PARENT=163.0536
SPLASH=splash10-052r-9500000000-b6e2ca797273130b4579
NUM_PEAKS=9
COMPOUND_NAME=Methomyl
SPECTRUM_ID=MSBNK-Eawag-EA294204
ADDUCT=[M+H]+
MS_LEVEL=MS2
PRECURSOR_MZ=163.0536
IONMODE=positive
NOMINAL_MASS=162
PARENT_MASS=162.0463
56.0495 18.0 
57.0697 2.0 
58.0288 57.0 
61.0106 14.0 
65.0056 23.0 
72.9981 26.0 
88.0216 999.0 
89.0599 2.0 
106.0322 666.0 
END IONS

BEGIN IONS
SYNON=diethoxyphosphinothioylsulfanylmethylsulfanyl-diethoxy-sulfanylidene-lambda5-phosphane
INCHIKEY=RIZMRRKBZQXFOY-UHFFFAOYSA-N
INCHI=InChI=1S/C9H22O4P2S4/c1-5-10-14(16,11-6-2)18-9-19-15(17,12-7-3)13-8-4/h5-9H2,1-4H3
SMILES=CCOP(=S)(OCC)SCSP(=S)(OCC)OCC
INSTRUMENT_TYPE=LC-ESI-QFT
INSTRUMENT=Exploris 240 Orbitrap Thermo Scientific
COLLISION_ENERGY=150 % (nominal)
FORMULA=C9H22O4P2S4
PARENT=384.9949
SPLASH=splash10-03fs-9100000000-524d037e80156deb9b63
NUM_PEAKS=5
COMPOUND_NAME=Ethion
SPECTRUM_ID=MSBNK-Eawag-EQ01136008
ADDUCT=[M+H]+
MS_LEVEL=MS2
PRECURSOR_MZ=384.9949
IONMODE=positive
NOMINAL_MASS=384
PARENT_MASS=383.9876
64.9787 999.0 
78.9402 662.0 
96.9508 773.0 
110.9663 32.0 
114.9614 257.0 
END IONS

BEGIN IONS
SYNON=N,N-dimethylcarbamic acid [2-(dimethylamino)-5,6-dimethyl-4-pyrimidinyl] ester
INCHIKEY=YFGYUFNIOHWBOB-UHFFFAOYSA-N
INCHI=InChI=1S/C11H18N4O2/c1-7-8(2)12-10(14(3)4)13-9(7)17-11(16)15(5)6/h1-6H3
SMILES=n(c(c(C)c1OC(=O)N(C)C)C)c(n1)N(C)C
INSTRUMENT_TYPE=LC-ESI-ITFT
INSTRUMENT=LTQ Orbitrap XL Thermo Scientific
COLLISION_ENERGY=35 % (nominal)
FORMULA=C11H18N4O2
PARENT=239.1503
SPLASH=splash10-001i-0900000000-2b11f2781d46febc7c82
NUM_PEAKS=8
COMPOUND_NAME=Pirimicarb
SPECTRUM_ID=MSBNK-Eawag-EA271114
ADDUCT=[M+H]+
MS_LEVEL=MS2
PRECURSOR_MZ=239.1503
IONMODE=positive
NOMINAL_MASS=238
PARENT_MASS=238.1430
72.0444 72.0 
137.0709 1.0 
150.1024 1.0 
166.0975 27.0 
167.1054 1.0 
182.1289 999.0 
194.0925 6.0 
195.1605 402.0 
END IONS

BEGIN IONS
SYNON=2-(dimethoxyphosphinothioylthio)-N-methylacetamide
INCHIKEY=MCWXGJITAZMZEV-UHFFFAOYSA-N
INCHI=InChI=1S/C5H12NO3PS2/c1-6-5(7)4-12-10(11,8-2)9-3/h4H2,1-3H3,(H,6,7)
SMILES=P(SCC(NC)=O)(OC)(OC)=S
INSTRUMENT_TYPE=LC-ESI-ITFT
INSTRUMENT=LTQ Orbitrap XL Thermo Scientific
COLLISION_ENERGY=15 % (nominal)
FORMULA=C5H12NO3PS2
PARENT=230.0069
SPLASH=splash10-0002-0920000000-907d3f6348de19c16822
NUM_PEAKS=11
COMPOUND_NAME=Dimethoate
SPECTRUM_ID=MSBNK-Eawag-EA276102
ADDUCT=[M+H]+
MS_LEVEL=MS2
PRECURSOR_MZ=230.0069
IONMODE=positive
NOMINAL_MASS=229
PARENT_MASS=228.9996
61.0104 1.0 
78.9947 1.0 
88.0215 85.0 
119.9938 1.0 
124.982 75.0 
142.9925 30.0 
156.9541 12.0 
170.9697 384.0 
197.9807 36.0 
198.9646 999.0 
230.0067 351.0 
END IONS

BEGIN IONS
SYNON=[amino(methylsulfanyl)phosphoryl]oxymethane
INCHIKEY=NNKVPIKMPCQWCG-UHFFFAOYSA-N
INCHI=InChI=1S/C2H8NO2PS/c1-5-6(3,4)7-2/h1-2H3,(H2,3,4)
SMILES=COP(=O)(N)SC
INSTRUMENT_TYPE=LC-ESI-QFT
INSTRUMENT=Exploris 240 Orbitrap Thermo Scientific
COLLISION_ENERGY=90 % (nominal)
FORMULA=C2H8NO2PS
PARENT=142.0086
SPLASH=splash10-0006-9100000000-262a76f3823f849990e1
NUM_PEAKS=10
COMPOUND_NAME=Methamidophos
SPECTRUM_ID=MSBNK-Eawag-EQ01128006
ADDUCT=[M+H]+
MS_LEVEL=MS2
PRECURSOR_MZ=142.0086
IONMODE=positive
NOMINAL_MASS=141
PARENT_MASS=141.0013
44.9794 55.0 
46.9681 27.0 
46.995 411.0 
62.0185 53.0 
63.9946 219.0 
64.9786 7.0 
78.9943 344.0 
94.0052 999.0 
109.9824 106.0 
124.982 277.0 
END IONS

BEGIN IONS
INCHIKEY=YFGYUFNIOHWBOB-UHFFFAOYSA-N
INCHI=InChI=1S/C11H18N4O2/c1-7-8(2)12-10(14(3)4)13-9(7)17-11(16)15(5)6/h1-6H3
SMILES=CN(C)C(=O)Oc(n1)c(C)c(C)nc(N(C)C)1
INSTRUMENT_TYPE=LC-ESI-QQ
INSTRUMENT=API3000, Applied Biosystems
COLLISION_ENERGY=50 V
FORMULA=C11H18N4O2
PARENT=239.0
SPLASH=splash10-00di-9300000000-c5ce3f6fe74d6d12c54e
NUM_PEAKS=18
COMPOUND_NAME=Pirimicarb
SPECTRUM_ID=MSBNK-Keio_Univ-KO003911
ADDUCT=[M+H]+
MS_LEVEL=MS2
PRECURSOR_MZ=239.0
IONMODE=positive
NOMINAL_MASS=238
PARENT_MASS=238.14298
55.9 17.0 
68.8 10.0 
72.2 999.0 
79.0 34.0 
81.0 14.0 
81.9 4.0 
84.9 57.0 
91.3 8.0 
93.0 18.0 
94.9 6.0 
95.7 6.0 
107.1 34.0 
109.1 73.0 
122.9 3.0 
124.8 7.0 
135.3 295.0 
137.1 8.0 
138.2 11.0 
END IONS

BEGIN IONS
INCHIKEY=YFGYUFNIOHWBOB-UHFFFAOYSA-N
INCHI=InChI=1S/C11H18N4O2/c1-7-8(2)12-10(14(3)4)13-9(7)17-11(16)15(5)6/h1-6H3
SMILES=CN(C)C(=O)Oc(n1)c(C)c(C)nc(N(C)C)1
INSTRUMENT_TYPE=LC-ESI-QQ
INSTRUMENT=API3000, Applied Biosystems
COLLISION_ENERGY=10 V
FORMULA=C11H18N4O2
PARENT=239.0
SPLASH=splash10-000i-0190000000-d6d855d2686532d3fcd4
NUM_PEAKS=35
COMPOUND_NAME=Pirimicarb
SPECTRUM_ID=MSBNK-Keio_Univ-KO003907
ADDUCT=[M+H]+
MS_LEVEL=MS2
PRECURSOR_MZ=239.0
IONMODE=positive
NOMINAL_MASS=238
PARENT_MASS=238.14298
72.1 1.0 
76.9 1.0 
88.1 1.0 
88.9 1.0 
106.8 1.0 
113.3 1.0 
119.3 1.0 
121.0 5.0 
141.0 1.0 
142.9 1.0 
148.8 1.0 
152.1 144.0 
157.4 15.0 
160.4 1.0 
162.0 1.0 
162.8 1.0 
164.0 1.0 
164.9 1.0 
171.4 1.0 
174.9 2.0 
177.3 13.0 
179.0 11.0 
182.0 6.0 
190.2 9.0 
193.0 1.0 
193.5 1.0 
195.4 2.0 
202.9 4.0 
204.3 13.0 
207.4 7.0 
221.5 4.0 
222.3 38.0 
225.4 1.0 
239.4 999.0 
257.3 7.0 
END IONS

BEGIN IONS
INCHIKEY=YFGYUFNIOHWBOB-UHFFFAOYSA-N
INCHI=InChI=1S/C11H18N4O2/c1-7-8(2)12-10(14(3)4)13-9(7)17-11(16)15(5)6/h1-6H3
SMILES=CN(C)C(=O)Oc(n1)c(C)c(C)nc(N(C)C)1
INSTRUMENT_TYPE=LC-ESI-QQ
INSTRUMENT=API3000, Applied Biosystems
COLLISION_ENERGY=20 V
FORMULA=C11H18N4O2
PARENT=239.0
SPLASH=splash10-0fer-4950000000-e0b3429651b4ba53949d
NUM_PEAKS=44
COMPOUND_NAME=Pirimicarb
SPECTRUM_ID=MSBNK-Keio_Univ-KO003908
ADDUCT=[M+H]+
MS_LEVEL=MS2
PRECURSOR_MZ=239.0
IONMODE=positive
NOMINAL_MASS=238
PARENT_MASS=238.14298
57.0 9.0 
62.7 16.0 
72.1 704.0 
76.8 8.0 
80.8 8.0 
82.0 3.0 
85.0 4.0 
88.2 18.0 
89.1 5.0 
90.3 3.0 
95.2 3.0 
97.2 2.0 
98.7 5.0 
104.8 10.0 
119.3 7.0 
120.1 5.0 
120.8 12.0 
125.2 5.0 
134.8 20.0 
135.3 45.0 
138.9 3.0 
141.1 4.0 
148.5 3.0 
152.2 705.0 
153.0 8.0 
157.1 55.0 
158.2 3.0 
160.1 14.0 
162.0 23.0 
162.5 2.0 
164.2 9.0 
166.4 6.0 
176.0 6.0 
177.4 21.0 
179.3 14.0 
182.3 637.0 
190.4 29.0 
194.0 7.0 
195.3 65.0 
204.2 59.0 
221.3 18.0 
222.4 23.0 
239.4 999.0 
257.5 6.0 
END IONS

BEGIN IONS
INCHIKEY=YFGYUFNIOHWBOB-UHFFFAOYSA-N
INCHI=InChI=1S/C11H18N4O2/c1-7-8(2)12-10(14(3)4)13-9(7)17-11(16)15(5)6/h1-6H3
SMILES=CN(C)C(=O)Oc(n1)c(C)c(C)nc(N(C)C)1
INSTRUMENT_TYPE=LC-ESI-QQ
INSTRUMENT=API3000, Applied Biosystems
COLLISION_ENERGY=30 V
FORMULA=C11H18N4O2
PARENT=239.0
SPLASH=splash10-00di-9700000000-5696d9ea325a28ebbcff
NUM_PEAKS=36
COMPOUND_NAME=Pirimicarb
SPECTRUM_ID=MSBNK-Keio_Univ-KO003909
ADDUCT=[M+H]+
MS_LEVEL=MS2
PRECURSOR_MZ=239.0
IONMODE=positive
NOMINAL_MASS=238
PARENT_MASS=238.14298
59.3 4.0 
62.4 9.0 
70.6 7.0 
72.0 999.0 
76.9 3.0 
79.3 4.0 
82.9 5.0 
84.1 3.0 
85.4 46.0 
88.1 10.0 
95.3 5.0 
104.9 6.0 
108.9 17.0 
111.6 3.0 
115.1 2.0 
119.2 6.0 
121.1 4.0 
123.2 5.0 
126.0 4.0 
130.1 6.0 
135.2 274.0 
137.2 40.0 
138.5 5.0 
145.0 7.0 
150.2 19.0 
152.2 196.0 
157.4 2.0 
159.2 4.0 
160.0 9.0 
162.0 8.0 
163.7 1.0 
167.0 3.0 
172.1 5.0 
177.0 6.0 
182.2 236.0 
195.6 11.0 
END IONS

BEGIN IONS
INCHIKEY=YFGYUFNIOHWBOB-UHFFFAOYSA-N
INCHI=InChI=1S/C11H18N4O2/c1-7-8(2)12-10(14(3)4)13-9(7)17-11(16)15(5)6/h1-6H3
SMILES=CN(C)C(=O)Oc(n1)c(C)c(C)nc(N(C)C)1
INSTRUMENT_TYPE=LC-ESI-IT
INSTRUMENT=LC/MSD Trap XCT, Agilent Technologies
COLLISION_ENERGY=0.70
FORMULA=C11H18N4O2
PARENT=239.0
SPLASH=splash10-001i-2900000000-eceb4bc909c291e7a2c3
NUM_PEAKS=35
COMPOUND_NAME=Pirimicarb
SPECTRUM_ID=MSBNK-Keio_Univ-KO009151
ADDUCT=[M+H]+
MS_LEVEL=MS2
PRECURSOR_MZ=239.0
IONMODE=positive
NOMINAL_MASS=238
PARENT_MASS=238.14298
72.2 432.0 
73.1 1.0 
74.0 1.0 
75.2 1.0 
82.6 1.0 
83.2 2.0 
85.1 5.0 
89.2 1.0 
96.0 1.0 
108.9 1.0 
110.1 1.0 
113.1 1.0 
124.0 1.0 
125.1 1.0 
137.1 17.0 
138.0 1.0 
149.1 1.0 
150.1 8.0 
151.1 1.0 
163.1 1.0 
165.0 1.0 
166.1 54.0 
167.1 1.0 
168.1 1.0 
180.1 1.0 
181.4 1.0 
182.1 999.0 
183.2 4.0 
185.4 1.0 
194.1 14.0 
195.2 380.0 
196.2 2.0 
197.0 1.0 
221.1 1.0 
239.2 26.0 
END IONS

BEGIN IONS
INCHIKEY=YFGYUFNIOHWBOB-UHFFFAOYSA-N
INCHI=InChI=1S/C11H18N4O2/c1-7-8(2)12-10(14(3)4)13-9(7)17-11(16)15(5)6/h1-6H3
SMILES=CN(C)C(=O)Oc(n1)c(C)c(C)nc(N(C)C)1
INSTRUMENT_TYPE=LC-ESI-QQ
INSTRUMENT=API3000, Applied Biosystems
COLLISION_ENERGY=40 V
FORMULA=C11H18N4O2
PARENT=239.0
SPLASH=splash10-00di-9400000000-470125be6447d12b01ec
NUM_PEAKS=28
COMPOUND_NAME=Pirimicarb
SPECTRUM_ID=MSBNK-Keio_Univ-KO003910
ADDUCT=[M+H]+
MS_LEVEL=MS2
PRECURSOR_MZ=239.0
IONMODE=positive
NOMINAL_MASS=238
PARENT_MASS=238.14298
55.0 2.0 
57.1 10.0 
63.1 6.0 
72.2 999.0 
78.8 11.0 
80.9 3.0 
83.1 24.0 
85.0 74.0 
88.1 5.0 
93.0 6.0 
106.0 3.0 
106.9 11.0 
109.4 54.0 
114.5 2.0 
116.2 5.0 
117.1 5.0 
125.3 5.0 
129.8 7.0 
135.2 345.0 
137.3 25.0 
138.1 15.0 
144.1 3.0 
145.1 3.0 
150.2 10.0 
152.4 46.0 
162.3 6.0 
167.1 5.0 
182.5 24.0 
END IONS

BEGIN IONS
INCHIKEY=DUEPRVBVGDRKAG-UHFFFAOYSA-N
INCHI=InChI=1S/C12H15NO3/c1-12(2)7-8-5-4-6-9(10(8)16-12)15-11(14)13-3/h4-6H,7H2,1-3H3,(H,13,14)
SMILES=CNC(=O)Oc1cccc2CC(C)(C)Oc12
INSTRUMENT_TYPE=LC-ESI-ITFT
INSTRUMENT=Orbitrap Classic, Thermo Scientific
COLLISION_ENERGY=65 eV FT-MS
FORMULA=C12H15NO3
PARENT=222.1125
SPLASH=splash10-014i-0900000000-db0325cd623fabc66d5b
NUM_PEAKS=4
COMPOUND_NAME=CARBOFURAN
SPECTRUM_ID=MSBNK-KWR-KW108404
ADDUCT=[M+H]+
MS_LEVEL=MS2
PRECURSOR_MZ=222.1125
IONMODE=positive
NOMINAL_MASS=221
PARENT_MASS=221.1052
123.0441 31.0 
137.0598 1.0 
165.091 999.0 
191.0703 1.0 
END IONS

BEGIN IONS
INCHIKEY=DUEPRVBVGDRKAG-UHFFFAOYSA-N
INCHI=InChI=1S/C12H15NO3/c1-12(2)7-8-5-4-6-9(10(8)16-12)15-11(14)13-3/h4-6H,7H2,1-3H3,(H,13,14)
SMILES=CNC(=O)Oc1cccc2CC(C)(C)Oc12
INSTRUMENT_TYPE=LC-ESI-ITFT
INSTRUMENT=Orbitrap Classic, Thermo Scientific
COLLISION_ENERGY=35 eV FT-MS
FORMULA=C12H15NO3
PARENT=222.1125
SPLASH=splash10-014i-0900000000-5460130dea861727bfb9
NUM_PEAKS=6
COMPOUND_NAME=CARBOFURAN
SPECTRUM_ID=MSBNK-KWR-KW108402
ADDUCT=[M+H]+
MS_LEVEL=MS2
PRECURSOR_MZ=222.1125
IONMODE=positive
NOMINAL_MASS=221
PARENT_MASS=221.1052
123.0441 30.0 
137.0596 1.0 
147.0803 1.0 
159.1023 1.0 
165.091 999.0 
222.1125 13.0 
END IONS

BEGIN IONS
INCHIKEY=DUEPRVBVGDRKAG-UHFFFAOYSA-N
INCHI=InChI=1S/C12H15NO3/c1-12(2)7-8-5-4-6-9(10(8)16-12)15-11(14)13-3/h4-6H,7H2,1-3H3,(H,13,14)
SMILES=CNC(=O)Oc1cccc2CC(C)(C)Oc12
INSTRUMENT_TYPE=LC-ESI-ITFT
INSTRUMENT=Orbitrap Classic, Thermo Scientific
COLLISION_ENERGY=35 eV FT-MS II
FORMULA=C12H15NO3
PARENT=222.1125
SPLASH=splash10-014i-0900000000-56cff09321b5d155fc11
NUM_PEAKS=5
COMPOUND_NAME=CARBOFURAN
SPECTRUM_ID=MSBNK-KWR-KW108403
ADDUCT=[M+H]+
MS_LEVEL=MS2
PRECURSOR_MZ=222.1125
IONMODE=positive
NOMINAL_MASS=221
PARENT_MASS=221.1052
123.0441 28.0 
137.0597 1.0 
165.091 999.0 
191.0699 1.0 
222.1124 9.0 
END IONS

BEGIN IONS
SYNON=ethyl 2-diethoxyphosphinothioyloxy-5-methylpyrazolo[1,5-a]pyrimidine-6-carboxylate
INCHIKEY=JOOMJVFZQRQWKR-UHFFFAOYSA-N
INCHI=InChI=1S/C14H20N3O5PS/c1-5-19-14(18)11-9-17-12(15-10(11)4)8-13(16-17)22-23(24,20-6-2)21-7-3/h8-9H,5-7H2,1-4H3
SMILES=CCOC(=O)C1=CN2N=C(OP(=S)(OCC)OCC)C=C2N=C1C
INSTRUMENT_TYPE=LC-ESI-QFT
INSTRUMENT=Q Exactive Orbitrap (Thermo Scientific)
COLLISION_ENERGY=75
FORMULA=C14H20N3O5PS
PARENT=374.0934
SPLASH=splash10-01tc-1900000000-af92fd98e738473eb5d2
NUM_PEAKS=158
COMPOUND_NAME=Pyrazophos
SPECTRUM_ID=MSBNK-LCSB-LU068505
ADDUCT=[M+H]+
MS_LEVEL=MS2
PRECURSOR_MZ=374.0934
IONMODE=positive
NOMINAL_MASS=373
PARENT_MASS=373.0861
51.0229 1.0 
52.0182 1.0 
53.0022 4.0 
54.0338 17.0 
55.0178 1.0 
55.029 1.0 
56.0494 9.0 
61.0106 2.0 
64.9786 146.0 
65.0385 9.0 
66.0337 23.0 
67.0177 5.0 
67.029 3.0 
67.0416 3.0 
68.013 30.0 
68.0494 8.0 
70.0287 8.0 
71.0128 1.0 
74.0964 2.0 
78.0337 14.0 
78.9401 2.0 
78.9943 7.0 
79.029 2.0 
80.0131 20.0 
80.0368 1.0 
80.0494 3.0 
80.9735 1.0 
81.0447 17.0 
82.0287 6.0 
82.0526 1.0 
82.9892 6.0 
83.0127 3.0 
83.0604 1.0 
84.0444 3.0 
92.0367 1.0 
92.0495 19.0 
93.01 36.0 
93.0447 89.0 
94.0287 68.0 
94.0651 5.0 
95.0603 29.0 
96.0444 4.0 
96.9507 15.0 
97.0397 2.0 
98.9664 5.0 
98.9841 74.0 
99.0552 17.0 
100.0393 15.0 
104.0367 1.0 
105.0447 18.0 
106.0288 9.0 
106.0523 2.0 
107.0239 2.0 
107.0605 1.0 
108.0317 2.0 
108.0444 2.0 
109.005 5.0 
109.0395 14.0 
110.0235 6.0 
110.0349 3.0 
110.0599 8.0 
111.0313 3.0 
111.0552 41.0 
112.0393 17.0 
112.9998 3.0 
113.9535 150.0 
114.9613 708.0 
119.024 3.0 
120.0447 15.0 
120.0556 137.0 
121.0396 77.0 
122.0237 3.0 
122.0713 13.0 
123.0551 7.0 
124.0393 4.0 
124.0506 7.0 
126.0425 2.0 
127.0499 2.0 
128.0339 2.0 
128.0454 2.0 
128.9769 23.0 
130.0399 8.0 
130.9562 9.0 
131.0101 1.0 
131.0239 4.0 
131.0477 17.0 
131.06 2.0 
131.9637 1.0 
132.0558 1.0 
132.9718 7.0 
133.0396 11.0 
133.0633 6.0 
134.0473 7.0 
137.0169 7.0 
137.0344 4.0 
138.055 2.0 
138.0662 4.0 
139.0502 172.0 
142.9927 4.0 
145.9797 2.0 
146.9874 7.0 
148.0504 525.0 
149.0345 70.0 
150.0661 29.0 
151.0499 5.0 
152.0458 2.0 
152.058 17.0 
153.0658 2.0 
155.045 3.0 
159.0427 115.0 
160.0505 11.0 
162.9955 2.0 
164.0278 5.0 
164.0457 1.0 
165.0117 74.0 
166.0611 324.0 
167.0449 7.0 
169.0371 5.0 
169.0616 1.0 
170.9638 2.0 
172.967 5.0 
175.0375 9.0 
176.0454 999.0 
177.0295 90.0 
177.0531 320.0 
178.061 48.0 
180.0764 8.0 
180.0889 2.0 
181.0065 34.0 
182.0143 1.0 
183.0223 184.0 
184.9672 1.0 
190.007 4.0 
192.0226 13.0 
193.0481 4.0 
194.056 884.0 
196.9676 1.0 
199.0171 53.0 
205.0844 14.0 
206.0924 7.0 
207.0099 6.0 
208.0175 9.0 
208.0715 26.0 
210.0328 19.0 
211.0537 4.0 
212.0215 2.0 
213.0327 9.0 
222.0062 2.0 
222.0876 8.0 
222.9706 1.0 
227.0483 1.0 
238.0639 1.0 
239.0093 1.0 
240.0162 8.0 
256.0117 7.0 
268.9749 4.0 
271.9894 2.0 
274.0216 1.0 
END IONS

BEGIN IONS
SYNON=3-[butan-2-ylsulfanyl(ethoxy)phosphoryl]-1,3-thiazolidin-2-one
INCHIKEY=DUFVKSUJRWYZQP-UHFFFAOYSA-N
INCHI=InChI=1S/C9H18NO3PS2/c1-4-8(3)16-14(12,13-5-2)10-6-7-15-9(10)11/h8H,4-7H2,1-3H3
SMILES=CCOP(=O)(SC(C)CC)N1CCSC1=O
INSTRUMENT_TYPE=LC-ESI-QFT
INSTRUMENT=Q Exactive Orbitrap (Thermo Scientific)
COLLISION_ENERGY=75
FORMULA=C9H18NO3PS2
PARENT=284.0538
SPLASH=splash10-0udi-0900000000-39b4a4c7201e262ebe92
NUM_PEAKS=21
COMPOUND_NAME=Fosthiazate
SPECTRUM_ID=MSBNK-LCSB-LU046305
ADDUCT=[M+H]+
MS_LEVEL=MS2
PRECURSOR_MZ=284.0538
IONMODE=positive
NOMINAL_MASS=283
PARENT_MASS=283.0466
55.0543 5.0 
57.0699 18.0 
58.995 5.0 
61.0107 46.0 
74.0057 3.0 
76.0216 47.0 
94.9173 4.0 
96.9508 4.0 
104.0165 999.0 
114.9614 80.0 
119.9938 12.0 
120.9334 5.0 
121.9826 5.0 
124.016 8.0 
137.9597 58.0 
139.9933 9.0 
154.0654 11.0 
155.0687 13.0 
171.9652 9.0 
183.0876 8.0 
199.0825 8.0 
END IONS

BEGIN IONS
SYNON=(2,6-dichloro-4-methylphenoxy)-dimethoxy-sulfanylidene-lambda5-phosphane
INCHIKEY=OBZIQQJJIKNWNO-UHFFFAOYSA-N
INCHI=InChI=1S/C9H11Cl2O3PS/c1-6-4-7(10)9(8(11)5-6)14-15(16,12-2)13-3/h4-5H,1-3H3
SMILES=COP(=S)(OC)OC1=C(Cl)C=C(C)C=C1Cl
INSTRUMENT_TYPE=LC-ESI-QFT
INSTRUMENT=Q Exactive Orbitrap (Thermo Scientific)
COLLISION_ENERGY=15
FORMULA=C9H11Cl2O3PS
PARENT=300.9616
SPLASH=splash10-0udi-0009000000-69e47ccbcd33c2cd4c6f
NUM_PEAKS=6
COMPOUND_NAME=Tolclofos-methyl
SPECTRUM_ID=MSBNK-LCSB-LU046101
ADDUCT=[M+H]+
MS_LEVEL=MS2
PRECURSOR_MZ=300.9616
IONMODE=positive
NOMINAL_MASS=300
PARENT_MASS=299.9544
124.9822 3.0 
142.9927 41.0 
237.9353 2.0 
252.9583 14.0 
286.9463 9.0 
300.9618 999.0 
END IONS

BEGIN IONS
SYNON=methyl (1E)-N-[methyl-[methyl-[(E)-1-methylsulfanylethylideneamino]oxycarbonylamino]sulfanylcarbamoyl]oxyethanimidothioate
INCHIKEY=XDOTVMNBCQVZKG-MKICQXMISA-N
INCHI=InChI=1S/C10H18N4O4S3/c1-7(19-5)11-17-9(15)13(3)21-14(4)10(16)18-12-8(2)20-6/h1-6H3/b11-7+,12-8+
SMILES=CS\C(C)=N\OC(=O)N(C)SN(C)C(=O)O\N=C(/C)SC
INSTRUMENT_TYPE=LC-ESI-QFT
INSTRUMENT=Q Exactive Orbitrap (Thermo Scientific)
COLLISION_ENERGY=30
FORMULA=C10H18N4O4S3
PARENT=355.0563
SPLASH=splash10-000i-9200000000-6c3c2f0ed9945840e621
NUM_PEAKS=5
COMPOUND_NAME=Thiodicarb
SPECTRUM_ID=MSBNK-LCSB-LU045702
ADDUCT=[M+H]+
MS_LEVEL=MS2
PRECURSOR_MZ=355.0563
IONMODE=positive
NOMINAL_MASS=354
PARENT_MASS=354.049
62.0058 35.0 
72.9979 21.0 
78.967 69.0 
88.0216 999.0 
107.9937 295.0 
END IONS

BEGIN IONS
SYNON=N-[ethoxy-(3-methyl-4-methylsulfanylphenoxy)phosphoryl]propan-2-amine
INCHIKEY=ZCJPOPBZHLUFHF-UHFFFAOYSA-N
INCHI=InChI=1S/C13H22NO3PS/c1-6-16-18(15,14-10(2)3)17-12-7-8-13(19-5)11(4)9-12/h7-10H,6H2,1-5H3,(H,14,15)
SMILES=CCOP(=O)(NC(C)C)OC1=CC=C(SC)C(C)=C1
INSTRUMENT_TYPE=LC-ESI-QFT
INSTRUMENT=Q Exactive Orbitrap (Thermo Scientific)
COLLISION_ENERGY=75
FORMULA=C13H22NO3PS
PARENT=304.1131
SPLASH=splash10-0udi-2790000000-1095285c67e6b6b760ea
NUM_PEAKS=81
COMPOUND_NAME=Fenamiphos
SPECTRUM_ID=MSBNK-LCSB-LU109705
ADDUCT=[M+H]+
MS_LEVEL=MS2
PRECURSOR_MZ=304.1131
IONMODE=positive
NOMINAL_MASS=303
PARENT_MASS=303.1058
53.0021 1.0 
53.0386 9.0 
58.995 36.0 
59.9664 2.0 
60.0808 12.0 
62.9453 7.0 
65.0385 4.0 
66.0465 2.0 
67.0542 2.0 
70.9949 4.0 
77.0386 2.0 
78.0464 13.0 
79.0542 57.0 
80.0621 2.0 
81.0333 1.0 
81.0699 3.0 
89.0386 2.0 
90.0464 1.0 
91.0542 81.0 
92.0621 1.0 
93.0699 27.0 
94.0413 1.0 
95.0492 26.0 
97.0107 100.0 
98.0002 23.0 
103.0543 34.0 
104.062 28.0 
105.0336 2.0 
105.0447 8.0 
105.0699 4.0 
106.0412 4.0 
106.0652 1.0 
107.0492 119.0 
108.057 83.0 
109.0107 8.0 
109.0648 39.0 
110.0185 29.0 
111.0263 16.0 
115.0543 1.0 
117.0699 2.0 
118.0775 1.0 
119.0605 1.0 
121.0106 18.0 
121.0649 1.0 
122.0185 84.0 
125.042 23.0 
125.0597 2.0 
134.0185 2.0 
135.0263 19.0 
136.0341 2.0 
137.0055 5.0 
137.042 30.0 
138.0134 82.0 
139.0212 41.0 
140.0291 11.0 
141.0102 2.0 
149.0419 2.0 
150.05 1.0 
153.0369 98.0 
154.0447 5.0 
154.9714 11.0 
155.0258 1.0 
155.0524 21.0 
165.0483 1.0 
168.9872 94.0 
169.0048 61.0 
180.9877 3.0 
183.0204 1.0 
183.9742 1.0 
184.982 4.0 
186.9979 4.0 
187.0158 2.0 
198.9979 18.0 
200.9773 21.0 
201.0009 8.0 
201.9848 999.0 
202.9926 94.0 
214.9926 19.0 
217.0083 162.0 
230.0162 2.0 
235.0187 1.0 
END IONS

BEGIN IONS
SYNON=ethyl 2-diethoxyphosphinothioyloxy-5-methylpyrazolo[1,5-a]pyrimidine-6-carboxylate
INCHIKEY=JOOMJVFZQRQWKR-UHFFFAOYSA-N
INCHI=InChI=1S/C14H20N3O5PS/c1-5-19-14(18)11-9-17-12(15-10(11)4)8-13(16-17)22-23(24,20-6-2)21-7-3/h8-9H,5-7H2,1-4H3
SMILES=CCOC(=O)C1=CN2N=C(OP(=S)(OCC)OCC)C=C2N=C1C
INSTRUMENT_TYPE=LC-ESI-QFT
INSTRUMENT=Q Exactive Orbitrap (Thermo Scientific)
COLLISION_ENERGY=15
FORMULA=C14H20N3O5PS
PARENT=374.0934
SPLASH=splash10-00di-0009000000-5b240be7d97acceb8237
NUM_PEAKS=9
COMPOUND_NAME=Pyrazophos
SPECTRUM_ID=MSBNK-LCSB-LU068501
ADDUCT=[M+H]+
MS_LEVEL=MS2
PRECURSOR_MZ=374.0934
IONMODE=positive
NOMINAL_MASS=373
PARENT_MASS=373.0861
170.0159 1.0 
211.0533 1.0 
222.0872 61.0 
236.0491 1.0 
238.0644 14.0 
318.0307 7.0 
328.0514 1.0 
346.062 72.0 
374.0933 999.0 
END IONS

BEGIN IONS
SYNON=N-[ethoxy-(3-methyl-4-methylsulfanylphenoxy)phosphoryl]propan-2-amine
INCHIKEY=ZCJPOPBZHLUFHF-UHFFFAOYSA-N
INCHI=InChI=1S/C13H22NO3PS/c1-6-16-18(15,14-10(2)3)17-12-7-8-13(19-5)11(4)9-12/h7-10H,6H2,1-5H3,(H,14,15)
SMILES=CCOP(=O)(NC(C)C)OC1=CC=C(SC)C(C)=C1
INSTRUMENT_TYPE=LC-ESI-QFT
INSTRUMENT=Q Exactive Orbitrap (Thermo Scientific)
COLLISION_ENERGY=15
FORMULA=C13H22NO3PS
PARENT=304.1131
SPLASH=splash10-0udi-0069000000-6b8ccc489100804aefcf
NUM_PEAKS=9
COMPOUND_NAME=Fenamiphos
SPECTRUM_ID=MSBNK-LCSB-LU109701
ADDUCT=[M+H]+
MS_LEVEL=MS2
PRECURSOR_MZ=304.1131
IONMODE=positive
NOMINAL_MASS=303
PARENT_MASS=303.1058
60.0808 28.0 
154.0456 2.0 
155.0525 1.0 
217.0083 48.0 
234.0349 160.0 
245.0396 27.0 
262.0662 210.0 
276.0819 301.0 
304.1131 999.0 
END IONS

BEGIN IONS
SYNON=N-[ethoxy-(3-methyl-4-methylsulfanylphenoxy)phosphoryl]propan-2-amine
INCHIKEY=ZCJPOPBZHLUFHF-UHFFFAOYSA-N
INCHI=InChI=1S/C13H22NO3PS/c1-6-16-18(15,14-10(2)3)17-12-7-8-13(19-5)11(4)9-12/h7-10H,6H2,1-5H3,(H,14,15)
SMILES=CCOP(=O)(NC(C)C)OC1=CC=C(SC)C(C)=C1
INSTRUMENT_TYPE=LC-ESI-QFT
INSTRUMENT=Q Exactive Orbitrap (Thermo Scientific)
COLLISION_ENERGY=30
FORMULA=C13H22NO3PS
PARENT=304.1131
SPLASH=splash10-0159-0090000000-5c9d652a2f71658ebf4b
NUM_PEAKS=24
COMPOUND_NAME=Fenamiphos
SPECTRUM_ID=MSBNK-LCSB-LU109702
ADDUCT=[M+H]+
MS_LEVEL=MS2
PRECURSOR_MZ=304.1131
IONMODE=positive
NOMINAL_MASS=303
PARENT_MASS=303.1058
60.0808 168.0 
97.0648 1.0 
98.0001 3.0 
107.0493 1.0 
140.0472 3.0 
153.0367 4.0 
154.0453 1.0 
155.0525 26.0 
168.9872 1.0 
201.9845 9.0 
216.0243 1.0 
216.1537 1.0 
217.0082 999.0 
219.0115 1.0 
230.0166 1.0 
234.0347 662.0 
235.0191 1.0 
245.0395 52.0 
249.0342 2.0 
258.0715 1.0 
259.0546 2.0 
262.066 98.0 
276.0817 234.0 
304.1131 70.0 
END IONS

BEGIN IONS
SYNON=[2-chloro-1-(2,4-dichlorophenyl)ethenyl] diethyl phosphate
INCHIKEY=FSAVDKDHPDSCTO-UHFFFAOYSA-N
INCHI=InChI=1S/C12H14Cl3O4P/c1-3-17-20(16,18-4-2)19-12(8-13)10-6-5-9(14)7-11(10)15/h5-8H,3-4H2,1-2H3
SMILES=CCOP(=O)(OCC)OC(=CCl)C1=C(Cl)C=C(Cl)C=C1
INSTRUMENT_TYPE=LC-ESI-QFT
INSTRUMENT=Q Exactive Orbitrap (Thermo Scientific)
COLLISION_ENERGY=75
FORMULA=C12H14Cl3O4P
PARENT=358.9768
SPLASH=splash10-00kb-9800000000-e9d298e31bd484ca0c3d
NUM_PEAKS=26
COMPOUND_NAME=Chlorfenvinphos
SPECTRUM_ID=MSBNK-LCSB-LU037605
ADDUCT=[M+H]+
MS_LEVEL=MS2
PRECURSOR_MZ=358.9768
IONMODE=positive
NOMINAL_MASS=358
PARENT_MASS=357.9695
64.9786 1.0 
77.0021 1.0 
80.9735 1.0 
86.9632 3.0 
89.0386 1.0 
98.0151 5.0 
98.9841 999.0 
108.9839 7.0 
110.9632 21.0 
116.9947 19.0 
122.9995 9.0 
127.0153 2.0 
131.0103 19.0 
132.9839 18.0 
133.992 4.0 
144.9607 3.0 
150.9944 3.0 
158.9764 3.0 
163.0057 2.0 
168.9607 27.0 
169.9684 759.0 
172.9667 1.0 
186.9715 4.0 
196.9668 10.0 
200.9866 3.0 
204.9374 14.0 
END IONS

BEGIN IONS
SYNON=diethoxy-[(1-phenyl-1,2,4-triazol-3-yl)oxy]-sulfanylidene-lambda5-phosphane
INCHIKEY=AMFGTOFWMRQMEM-UHFFFAOYSA-N
INCHI=InChI=1S/C12H16N3O3PS/c1-3-16-19(20,17-4-2)18-12-13-10-15(14-12)11-8-6-5-7-9-11/h5-10H,3-4H2,1-2H3
SMILES=CCOP(=S)(OCC)OC1=NN(C=N1)C1=CC=CC=C1
INSTRUMENT_TYPE=LC-ESI-QFT
INSTRUMENT=Q Exactive Orbitrap (Thermo Scientific)
COLLISION_ENERGY=30
FORMULA=C12H16N3O3PS
PARENT=314.0723
SPLASH=splash10-03di-0900000000-12bbd3b6c3774c237d14
NUM_PEAKS=16
COMPOUND_NAME=Triazophos
SPECTRUM_ID=MSBNK-LCSB-LU119302
ADDUCT=[M+H]+
MS_LEVEL=MS2
PRECURSOR_MZ=314.0723
IONMODE=positive
NOMINAL_MASS=313
PARENT_MASS=313.0650
77.0387 2.0 
96.9508 1.0 
114.9613 80.0 
119.0604 9.0 
124.9821 3.0 
128.9768 2.0 
142.9923 2.0 
153.0135 3.0 
162.0661 999.0 
171.0239 13.0 
178.0433 67.0 
190.0974 20.0 
206.0748 2.0 
258.0096 22.0 
286.0408 23.0 
314.0722 30.0 
END IONS

BEGIN IONS
SYNON=6-chloro-3-(diethoxyphosphinothioylsulfanylmethyl)-1,3-benzoxazol-2-one
INCHIKEY=IOUNQDKNJZEDEP-UHFFFAOYSA-N
INCHI=InChI=1S/C12H15ClNO4PS2/c1-3-16-19(20,17-4-2)21-8-14-10-6-5-9(13)7-11(10)18-12(14)15/h5-7H,3-4,8H2,1-2H3
SMILES=CCOP(=S)(OCC)SCN1C(=O)OC2=CC(Cl)=CC=C12
INSTRUMENT_TYPE=LC-ESI-QFT
INSTRUMENT=Q Exactive Orbitrap (Thermo Scientific)
COLLISION_ENERGY=90
FORMULA=C12H15ClNO4PS2
PARENT=367.9941
SPLASH=splash10-0aor-9100000000-02e7b729887a4439aa50
NUM_PEAKS=36
COMPOUND_NAME=Phosalone
SPECTRUM_ID=MSBNK-LCSB-LU017506
ADDUCT=[M+H]+
MS_LEVEL=MS2
PRECURSOR_MZ=367.9941
IONMODE=positive
NOMINAL_MASS=367
PARENT_MASS=366.9869
51.023 16.0 
53.0022 68.0 
53.0386 43.0 
53.9974 9.0 
55.0543 999.0 
56.0494 20.0 
57.0699 98.0 
64.9788 21.0 
67.0542 256.0 
69.0699 353.0 
70.0651 15.0 
71.0491 9.0 
75.0229 146.0 
79.0543 122.0 
81.0699 178.0 
83.0491 10.0 
83.0855 76.0 
85.0649 13.0 
86.9997 13.0 
91.0543 92.0 
93.07 55.0 
95.0492 26.0 
95.0856 85.0 
97.0647 9.0 
98.9842 22.0 
102.0338 31.0 
105.0699 53.0 
107.0856 17.0 
109.1014 11.0 
114.9614 161.0 
119.0857 14.0 
120.0444 14.0 
129.0102 61.0 
130.0402 21.0 
139.0058 88.0 
170.0007 14.0 
END IONS

BEGIN IONS
SYNON=N-[ethoxy-(3-methyl-4-methylsulfanylphenoxy)phosphoryl]propan-2-amine
INCHIKEY=ZCJPOPBZHLUFHF-UHFFFAOYSA-N
INCHI=InChI=1S/C13H22NO3PS/c1-6-16-18(15,14-10(2)3)17-12-7-8-13(19-5)11(4)9-12/h7-10H,6H2,1-5H3,(H,14,15)
SMILES=CCOP(=O)(NC(C)C)OC1=CC=C(SC)C(C)=C1
INSTRUMENT_TYPE=LC-ESI-QFT
INSTRUMENT=Q Exactive Orbitrap (Thermo Scientific)
COLLISION_ENERGY=60
FORMULA=C13H22NO3PS
PARENT=304.1131
SPLASH=splash10-0uxr-1390000000-f24fd43f0564a4e361bb
NUM_PEAKS=69
COMPOUND_NAME=Fenamiphos
SPECTRUM_ID=MSBNK-LCSB-LU109704
ADDUCT=[M+H]+
MS_LEVEL=MS2
PRECURSOR_MZ=304.1131
IONMODE=positive
NOMINAL_MASS=303
PARENT_MASS=303.1058
53.0022 2.0 
53.0386 2.0 
58.0651 2.0 
58.995 24.0 
60.0808 43.0 
70.995 2.0 
77.0386 1.0 
78.0464 2.0 
79.0542 21.0 
80.0493 1.0 
81.0698 2.0 
91.0542 33.0 
93.0699 18.0 
95.0491 5.0 
97.0106 51.0 
97.0647 6.0 
98.0001 19.0 
103.0542 24.0 
104.062 15.0 
105.0448 1.0 
105.0699 2.0 
107.0491 120.0 
108.0569 54.0 
109.0106 5.0 
109.0648 22.0 
110.0181 3.0 
111.0264 4.0 
115.0541 1.0 
117.0697 2.0 
118.0776 1.0 
121.011 1.0 
121.0646 1.0 
122.0184 25.0 
122.0234 1.0 
125.0419 11.0 
125.0596 2.0 
135.0262 12.0 
136.0342 1.0 
137.0419 45.0 
138.0133 8.0 
139.0212 34.0 
139.0753 2.0 
140.0291 5.0 
150.0496 4.0 
151.0209 1.0 
153.0368 154.0 
154.0446 5.0 
155.0524 83.0 
168.9871 100.0 
169.0042 9.0 
180.9869 1.0 
181.0684 1.0 
183.0204 3.0 
184.9819 2.0 
186.9976 6.0 
187.0392 1.0 
198.9978 39.0 
200.9772 4.0 
201.0011 8.0 
201.9847 999.0 
202.9925 109.0 
214.9925 11.0 
217.0082 976.0 
219.0116 1.0 
230.0161 11.0 
231.0241 1.0 
235.0185 2.0 
245.0394 1.0 
249.0345 2.0 
END IONS

BEGIN IONS
SYNON=3-[butan-2-ylsulfanyl(ethoxy)phosphoryl]-1,3-thiazolidin-2-one
INCHIKEY=DUFVKSUJRWYZQP-UHFFFAOYSA-N
INCHI=InChI=1S/C9H18NO3PS2/c1-4-8(3)16-14(12,13-5-2)10-6-7-15-9(10)11/h8H,4-7H2,1-3H3
SMILES=CCOP(=O)(SC(C)CC)N1CCSC1=O
INSTRUMENT_TYPE=LC-ESI-QFT
INSTRUMENT=Q Exactive Orbitrap (Thermo Scientific)
COLLISION_ENERGY=30
FORMULA=C9H18NO3PS2
PARENT=284.0538
SPLASH=splash10-0udi-0910000000-bb1a7ca94235f5efaa7b
NUM_PEAKS=11
COMPOUND_NAME=Fosthiazate
SPECTRUM_ID=MSBNK-LCSB-LU046302
ADDUCT=[M+H]+
MS_LEVEL=MS2
PRECURSOR_MZ=284.0538
IONMODE=positive
NOMINAL_MASS=283
PARENT_MASS=283.0466
57.0699 13.0 
61.0107 7.0 
104.0165 999.0 
114.9614 35.0 
119.9938 10.0 
153.0134 20.0 
167.9879 5.0 
181.0449 10.0 
199.9601 142.0 
227.9914 175.0 
284.0533 3.0 
END IONS

BEGIN IONS
SYNON=6-chloro-3-(diethoxyphosphinothioylsulfanylmethyl)-1,3-benzoxazol-2-one
INCHIKEY=IOUNQDKNJZEDEP-UHFFFAOYSA-N
INCHI=InChI=1S/C12H15ClNO4PS2/c1-3-16-19(20,17-4-2)21-8-14-10-6-5-9(13)7-11(10)18-12(14)15/h5-7H,3-4,8H2,1-2H3
SMILES=CCOP(=S)(OCC)SCN1C(=O)OC2=CC(Cl)=CC=C12
INSTRUMENT_TYPE=LC-ESI-QFT
INSTRUMENT=Q Exactive Orbitrap (Thermo Scientific)
COLLISION_ENERGY=60
FORMULA=C12H15ClNO4PS2
PARENT=367.9941
SPLASH=splash10-067i-9200000000-807f26e63340095f4783
NUM_PEAKS=48
COMPOUND_NAME=Phosalone
SPECTRUM_ID=MSBNK-LCSB-LU017504
ADDUCT=[M+H]+
MS_LEVEL=MS2
PRECURSOR_MZ=367.9941
IONMODE=positive
NOMINAL_MASS=367
PARENT_MASS=366.9869
51.023 17.0 
53.0022 25.0 
53.0386 28.0 
53.9976 10.0 
55.0543 999.0 
56.0495 25.0 
57.0699 214.0 
67.0542 286.0 
69.0699 976.0 
70.0651 30.0 
71.0491 20.0 
71.0855 62.0 
75.0229 14.0 
79.0542 86.0 
81.0699 373.0 
83.0493 30.0 
83.0855 489.0 
85.065 18.0 
85.1012 22.0 
86.9997 19.0 
91.0543 84.0 
93.0699 113.0 
95.0856 284.0 
97.0649 55.0 
97.1012 232.0 
98.9842 21.0 
105.0698 72.0 
107.0856 78.0 
109.0048 12.0 
109.0647 16.0 
109.1014 107.0 
111.0804 17.0 
111.1169 19.0 
114.9614 290.0 
119.0856 39.0 
120.0446 23.0 
121.1013 57.0 
123.1168 33.0 
125.0961 10.0 
129.0102 100.0 
130.0401 39.0 
133.1011 47.0 
135.1169 24.0 
138.0107 71.0 
139.0058 143.0 
147.1167 14.0 
170.0004 41.0 
182.0004 39.0 
END IONS

BEGIN IONS
SYNON=6-chloro-3-(diethoxyphosphinothioylsulfanylmethyl)-1,3-benzoxazol-2-one
INCHIKEY=IOUNQDKNJZEDEP-UHFFFAOYSA-N
INCHI=InChI=1S/C12H15ClNO4PS2/c1-3-16-19(20,17-4-2)21-8-14-10-6-5-9(13)7-11(10)18-12(14)15/h5-7H,3-4,8H2,1-2H3
SMILES=CCOP(=S)(OCC)SCN1C(=O)OC2=CC(Cl)=CC=C12
INSTRUMENT_TYPE=LC-ESI-QFT
INSTRUMENT=Q Exactive Orbitrap (Thermo Scientific)
COLLISION_ENERGY=75
FORMULA=C12H15ClNO4PS2
PARENT=367.9941
SPLASH=splash10-0aor-9100000000-c7226751e7dcb051a760
NUM_PEAKS=42
COMPOUND_NAME=Phosalone
SPECTRUM_ID=MSBNK-LCSB-LU017505
ADDUCT=[M+H]+
MS_LEVEL=MS2
PRECURSOR_MZ=367.9941
IONMODE=positive
NOMINAL_MASS=367
PARENT_MASS=366.9869
51.0231 13.0 
53.0023 53.0 
53.0386 27.0 
55.0543 999.0 
56.0495 32.0 
57.0335 10.0 
57.0699 121.0 
64.9788 8.0 
67.0542 261.0 
69.0699 570.0 
70.0651 26.0 
71.0491 19.0 
71.0855 29.0 
75.0229 50.0 
79.0542 104.0 
81.0699 206.0 
83.0491 18.0 
83.0856 199.0 
85.0648 12.0 
86.9996 19.0 
91.0543 64.0 
93.0699 71.0 
95.0491 18.0 
95.0856 161.0 
97.0647 36.0 
97.1012 50.0 
98.9842 32.0 
102.0339 12.0 
105.07 42.0 
107.0856 40.0 
109.0049 15.0 
109.1013 35.0 
114.9614 186.0 
119.0856 37.0 
120.0444 11.0 
121.101 10.0 
129.0101 78.0 
130.0401 46.0 
133.1013 13.0 
138.0107 23.0 
139.0058 129.0 
170.0004 20.0 
END IONS

BEGIN IONS
SYNON=3-[butan-2-ylsulfanyl(ethoxy)phosphoryl]-1,3-thiazolidin-2-one
INCHIKEY=DUFVKSUJRWYZQP-UHFFFAOYSA-N
INCHI=InChI=1S/C9H18NO3PS2/c1-4-8(3)16-14(12,13-5-2)10-6-7-15-9(10)11/h8H,4-7H2,1-3H3
SMILES=CCOP(=O)(SC(C)CC)N1CCSC1=O
INSTRUMENT_TYPE=LC-ESI-QFT
INSTRUMENT=Q Exactive Orbitrap (Thermo Scientific)
COLLISION_ENERGY=45
FORMULA=C9H18NO3PS2
PARENT=284.0538
SPLASH=splash10-0udi-0900000000-84ea473bcab224a6febf
NUM_PEAKS=14
COMPOUND_NAME=Fosthiazate
SPECTRUM_ID=MSBNK-LCSB-LU046303
ADDUCT=[M+H]+
MS_LEVEL=MS2
PRECURSOR_MZ=284.0538
IONMODE=positive
NOMINAL_MASS=283
PARENT_MASS=283.0466
57.0699 21.0 
61.0107 13.0 
76.0215 4.0 
96.951 3.0 
104.0164 999.0 
114.9613 63.0 
119.9937 13.0 
137.9595 22.0 
139.9566 17.0 
153.0135 10.0 
154.0652 3.0 
167.988 2.0 
199.9601 50.0 
227.9912 7.0 
END IONS

BEGIN IONS
SYNON=6-chloro-3-(diethoxyphosphinothioylsulfanylmethyl)-1,3-benzoxazol-2-one
INCHIKEY=IOUNQDKNJZEDEP-UHFFFAOYSA-N
INCHI=InChI=1S/C12H15ClNO4PS2/c1-3-16-19(20,17-4-2)21-8-14-10-6-5-9(13)7-11(10)18-12(14)15/h5-7H,3-4,8H2,1-2H3
SMILES=CCOP(=S)(OCC)SCN1C(=O)OC2=CC(Cl)=CC=C12
INSTRUMENT_TYPE=LC-ESI-QFT
INSTRUMENT=Q Exactive Orbitrap (Thermo Scientific)
COLLISION_ENERGY=45
FORMULA=C12H15ClNO4PS2
PARENT=367.9941
SPLASH=splash10-067j-9300000000-499473da586b92fa5d2e
NUM_PEAKS=45
COMPOUND_NAME=Phosalone
SPECTRUM_ID=MSBNK-LCSB-LU017503
ADDUCT=[M+H]+
MS_LEVEL=MS2
PRECURSOR_MZ=367.9941
IONMODE=positive
NOMINAL_MASS=367
PARENT_MASS=366.9869
55.0542 562.0 
56.0495 11.0 
57.0334 13.0 
57.0699 211.0 
67.0542 159.0 
69.0699 999.0 
70.0651 17.0 
71.0491 27.0 
71.0855 134.0 
79.0543 43.0 
81.0699 283.0 
83.0855 750.0 
85.065 17.0 
85.1013 56.0 
91.0542 35.0 
93.0699 106.0 
95.0856 340.0 
97.0649 55.0 
97.1012 548.0 
98.984 12.0 
99.0805 16.0 
100.0756 17.0 
101.0597 10.0 
105.0698 46.0 
107.0856 81.0 
109.0049 17.0 
109.0648 12.0 
109.1012 180.0 
111.1169 127.0 
114.9614 214.0 
119.0855 71.0 
121.1012 103.0 
123.1169 84.0 
125.0962 28.0 
130.0401 19.0 
133.1013 76.0 
135.1169 88.0 
137.0961 20.0 
138.0106 117.0 
139.0058 40.0 
139.112 21.0 
147.1168 54.0 
151.1123 14.0 
170.0006 56.0 
182.0004 151.0 
END IONS

BEGIN IONS
SYNON=ethyl 2-diethoxyphosphinothioyloxy-5-methylpyrazolo[1,5-a]pyrimidine-6-carboxylate
INCHIKEY=JOOMJVFZQRQWKR-UHFFFAOYSA-N
INCHI=InChI=1S/C14H20N3O5PS/c1-5-19-14(18)11-9-17-12(15-10(11)4)8-13(16-17)22-23(24,20-6-2)21-7-3/h8-9H,5-7H2,1-4H3
SMILES=CCOC(=O)C1=CN2N=C(OP(=S)(OCC)OCC)C=C2N=C1C
INSTRUMENT_TYPE=LC-ESI-QFT
INSTRUMENT=Q Exactive Orbitrap (Thermo Scientific)
COLLISION_ENERGY=60
FORMULA=C14H20N3O5PS
PARENT=374.0934
SPLASH=splash10-002f-0910000000-f6da5d61b6b31d7e360b
NUM_PEAKS=95
COMPOUND_NAME=Pyrazophos
SPECTRUM_ID=MSBNK-LCSB-LU068504
ADDUCT=[M+H]+
MS_LEVEL=MS2
PRECURSOR_MZ=374.0934
IONMODE=positive
NOMINAL_MASS=373
PARENT_MASS=373.0861
54.0339 1.0 
61.0107 1.0 
64.9787 41.0 
66.0339 2.0 
68.013 3.0 
68.0494 1.0 
74.0964 1.0 
78.9943 1.0 
80.0132 1.0 
81.9813 1.0 
82.9892 5.0 
92.0494 2.0 
93.01 36.0 
93.0448 5.0 
94.0287 4.0 
95.0604 2.0 
96.9508 6.0 
98.9663 3.0 
98.9842 14.0 
99.0553 2.0 
100.0393 2.0 
109.0048 2.0 
109.0397 1.0 
111.0554 2.0 
112.0393 1.0 
112.9999 1.0 
113.9536 94.0 
114.9613 262.0 
120.0448 2.0 
120.0556 10.0 
121.0396 5.0 
122.0713 2.0 
124.982 1.0 
128.9769 10.0 
130.9562 8.0 
131.0479 2.0 
131.9641 1.0 
132.9607 2.0 
132.972 3.0 
133.0396 1.0 
133.0635 1.0 
138.0663 1.0 
139.0502 21.0 
141.9847 3.0 
142.9926 10.0 
145.9796 1.0 
146.9876 2.0 
148.0505 77.0 
149.0346 12.0 
149.0584 1.0 
150.0662 6.0 
151.05 3.0 
152.0581 4.0 
159.0427 26.0 
160.0506 3.0 
164.0278 2.0 
165.0117 15.0 
166.0611 77.0 
167.0455 3.0 
172.9667 1.0 
175.0377 2.0 
176.0455 446.0 
177.0532 163.0 
178.0611 18.0 
180.0765 1.0 
180.0895 6.0 
181.0066 17.0 
183.0223 125.0 
184.9673 1.0 
190.007 2.0 
192.0227 18.0 
194.0561 999.0 
199.0172 22.0 
205.0846 35.0 
206.0925 10.0 
208.0176 17.0 
208.0716 11.0 
209.038 3.0 
210.0332 60.0 
211.0536 24.0 
212.0217 1.0 
213.0329 4.0 
222.0873 78.0 
227.0483 4.0 
236.0486 3.0 
238.0645 12.0 
239.0093 1.0 
241.0633 1.0 
253.978 5.0 
256.0119 7.0 
257.939 1.0 
268.9755 1.0 
271.989 7.0 
274.022 3.0 
303.9445 2.0 
END IONS

BEGIN IONS
SYNON=diethoxy-[(1-phenyl-1,2,4-triazol-3-yl)oxy]-sulfanylidene-lambda5-phosphane
INCHIKEY=AMFGTOFWMRQMEM-UHFFFAOYSA-N
INCHI=InChI=1S/C12H16N3O3PS/c1-3-16-19(20,17-4-2)18-12-13-10-15(14-12)11-8-6-5-7-9-11/h5-10H,3-4H2,1-2H3
SMILES=CCOP(=S)(OCC)OC1=NN(C=N1)C1=CC=CC=C1
INSTRUMENT_TYPE=LC-ESI-QFT
INSTRUMENT=Q Exactive Orbitrap (Thermo Scientific)
COLLISION_ENERGY=60
FORMULA=C12H16N3O3PS
PARENT=314.0723
SPLASH=splash10-03di-0900000000-5c4bdb177db77b87ae53
NUM_PEAKS=40
COMPOUND_NAME=Triazophos
SPECTRUM_ID=MSBNK-LCSB-LU119304
ADDUCT=[M+H]+
MS_LEVEL=MS2
PRECURSOR_MZ=314.0723
IONMODE=positive
NOMINAL_MASS=313
PARENT_MASS=313.0650
53.0386 7.0 
59.9902 1.0 
64.9786 7.0 
65.0385 11.0 
74.0963 1.0 
77.0386 5.0 
91.0542 2.0 
92.0494 108.0 
93.0572 4.0 
95.0491 20.0 
96.9508 27.0 
104.0494 26.0 
105.0447 9.0 
106.0652 1.0 
107.0601 1.0 
110.0599 4.0 
110.9664 1.0 
112.9998 2.0 
114.9613 603.0 
116.0494 1.0 
116.9655 2.0 
117.0446 2.0 
118.0525 1.0 
119.0604 739.0 
120.0681 85.0 
123.0549 1.0 
124.0216 1.0 
124.0757 2.0 
124.9822 4.0 
128.9769 20.0 
132.9717 5.0 
135.0552 2.0 
136.0214 2.0 
145.0396 64.0 
146.9876 3.0 
147.0914 1.0 
151.0325 2.0 
162.0661 999.0 
178.0433 86.0 
190.0974 2.0 
END IONS

BEGIN IONS
SYNON=[2-(dimethylamino)-5,6-dimethylpyrimidin-4-yl] N,N-dimethylcarbamate
INCHIKEY=YFGYUFNIOHWBOB-UHFFFAOYSA-N
INCHI=InChI=1S/C11H18N4O2/c1-7-8(2)12-10(14(3)4)13-9(7)17-11(16)15(5)6/h1-6H3
SMILES=CN(C)C(=O)OC1=C(C)C(C)=NC(=N1)N(C)C
INSTRUMENT_TYPE=LC-ESI-QFT
INSTRUMENT=Q Exactive Orbitrap (Thermo Scientific)
COLLISION_ENERGY=45
FORMULA=C11H18N4O2
PARENT=239.1503
SPLASH=splash10-00di-9300000000-93920ae814da04b6f184
NUM_PEAKS=15
COMPOUND_NAME=Pirimicarb
SPECTRUM_ID=MSBNK-LCSB-LU004403
ADDUCT=[M+H]+
MS_LEVEL=MS2
PRECURSOR_MZ=239.1503
IONMODE=positive
NOMINAL_MASS=238
PARENT_MASS=238.1430
56.0131 3.0 
72.0443 999.0 
83.024 2.0 
85.076 46.0 
109.076 9.0 
137.071 37.0 
138.0787 4.0 
150.1026 19.0 
152.0816 1.0 
166.0975 1.0 
167.1053 10.0 
168.113 1.0 
182.1288 343.0 
195.1604 15.0 
239.1501 7.0 
END IONS

BEGIN IONS
SYNON=3-[butan-2-ylsulfanyl(ethoxy)phosphoryl]-1,3-thiazolidin-2-one
INCHIKEY=DUFVKSUJRWYZQP-UHFFFAOYSA-N
INCHI=InChI=1S/C9H18NO3PS2/c1-4-8(3)16-14(12,13-5-2)10-6-7-15-9(10)11/h8H,4-7H2,1-3H3
SMILES=CCOP(=O)(SC(C)CC)N1CCSC1=O
INSTRUMENT_TYPE=LC-ESI-QFT
INSTRUMENT=Q Exactive Orbitrap (Thermo Scientific)
COLLISION_ENERGY=90
FORMULA=C9H18NO3PS2
PARENT=284.0538
SPLASH=splash10-0udi-1900000000-662a63357bd20908ab82
NUM_PEAKS=20
COMPOUND_NAME=Fosthiazate
SPECTRUM_ID=MSBNK-LCSB-LU046306
ADDUCT=[M+H]+
MS_LEVEL=MS2
PRECURSOR_MZ=284.0538
IONMODE=positive
NOMINAL_MASS=283
PARENT_MASS=283.0466
57.0699 11.0 
58.9949 12.0 
61.0107 99.0 
74.0058 13.0 
76.0216 85.0 
94.9174 21.0 
104.0165 999.0 
114.9614 121.0 
119.9936 9.0 
120.933 11.0 
121.9827 9.0 
124.0161 6.0 
137.96 39.0 
139.9566 9.0 
139.9928 9.0 
154.0653 16.0 
155.0686 16.0 
171.9653 6.0 
183.0878 6.0 
199.0827 8.0 
END IONS

BEGIN IONS
SYNON=ethyl 2-diethoxyphosphinothioyloxy-5-methylpyrazolo[1,5-a]pyrimidine-6-carboxylate
INCHIKEY=JOOMJVFZQRQWKR-UHFFFAOYSA-N
INCHI=InChI=1S/C14H20N3O5PS/c1-5-19-14(18)11-9-17-12(15-10(11)4)8-13(16-17)22-23(24,20-6-2)21-7-3/h8-9H,5-7H2,1-4H3
SMILES=CCOC(=O)C1=CN2N=C(OP(=S)(OCC)OCC)C=C2N=C1C
INSTRUMENT_TYPE=LC-ESI-QFT
INSTRUMENT=Q Exactive Orbitrap (Thermo Scientific)
COLLISION_ENERGY=45
FORMULA=C14H20N3O5PS
PARENT=374.0934
SPLASH=splash10-006x-0960000000-386197eb4fafbf09a894
NUM_PEAKS=65
COMPOUND_NAME=Pyrazophos
SPECTRUM_ID=MSBNK-LCSB-LU068503
ADDUCT=[M+H]+
MS_LEVEL=MS2
PRECURSOR_MZ=374.0934
IONMODE=positive
NOMINAL_MASS=373
PARENT_MASS=373.0861
61.0106 1.0 
64.9786 19.0 
82.9892 6.0 
93.01 40.0 
96.9506 3.0 
98.9664 3.0 
98.9841 7.0 
109.0048 3.0 
111.0205 1.0 
113.9535 100.0 
114.9613 157.0 
124.982 1.0 
125.9899 4.0 
128.9769 4.0 
130.9562 9.0 
131.964 1.0 
132.9717 1.0 
139.0503 1.0 
140.9767 2.0 
141.9847 29.0 
142.9925 20.0 
146.9875 1.0 
148.0502 7.0 
149.0589 2.0 
150.0658 1.0 
151.0501 2.0 
159.0425 6.0 
165.0117 3.0 
166.0611 9.0 
170.0159 16.0 
176.0454 175.0 
177.0531 91.0 
178.0612 6.0 
180.0893 6.0 
183.0222 71.0 
184.9668 2.0 
190.0065 2.0 
192.0226 33.0 
194.0559 999.0 
199.0173 8.0 
204.0768 2.0 
205.0845 85.0 
206.0924 10.0 
208.0175 27.0 
208.0715 6.0 
209.038 4.0 
210.0331 165.0 
211.0535 79.0 
222.0871 726.0 
227.0482 5.0 
236.0487 36.0 
238.0643 152.0 
241.0636 1.0 
250.118 1.0 
253.9776 4.0 
256.0113 4.0 
274.0225 5.0 
289.9995 6.0 
300.0202 13.0 
302.0538 2.0 
303.9443 7.0 
318.0307 9.0 
328.0513 2.0 
332.046 2.0 
346.0616 3.0 
END IONS

BEGIN IONS
SYNON=[2-(dimethylamino)-5,6-dimethylpyrimidin-4-yl] N,N-dimethylcarbamate
INCHIKEY=YFGYUFNIOHWBOB-UHFFFAOYSA-N
INCHI=InChI=1S/C11H18N4O2/c1-7-8(2)12-10(14(3)4)13-9(7)17-11(16)15(5)6/h1-6H3
SMILES=CN(C)C(=O)OC1=C(C)C(C)=NC(=N1)N(C)C
INSTRUMENT_TYPE=LC-ESI-QFT
INSTRUMENT=Q Exactive Orbitrap (Thermo Scientific)
COLLISION_ENERGY=60
FORMULA=C11H18N4O2
PARENT=239.1503
SPLASH=splash10-00di-9200000000-7fbc367bc473e0a4732e
NUM_PEAKS=17
COMPOUND_NAME=Pirimicarb
SPECTRUM_ID=MSBNK-LCSB-LU004404
ADDUCT=[M+H]+
MS_LEVEL=MS2
PRECURSOR_MZ=239.1503
IONMODE=positive
NOMINAL_MASS=238
PARENT_MASS=238.1430
56.0131 6.0 
58.0651 1.0 
71.0603 1.0 
72.0443 999.0 
83.0239 18.0 
85.076 93.0 
109.076 50.0 
124.0629 1.0 
137.0709 53.0 
138.0787 18.0 
150.1026 30.0 
152.0818 8.0 
166.0976 1.0 
167.1053 13.0 
180.1131 2.0 
182.1288 102.0 
195.1603 6.0 
END IONS

BEGIN IONS
SYNON=[2-(dimethylamino)-5,6-dimethylpyrimidin-4-yl] N,N-dimethylcarbamate
INCHIKEY=YFGYUFNIOHWBOB-UHFFFAOYSA-N
INCHI=InChI=1S/C11H18N4O2/c1-7-8(2)12-10(14(3)4)13-9(7)17-11(16)15(5)6/h1-6H3
SMILES=CN(C)C(=O)OC1=C(C)C(C)=NC(=N1)N(C)C
INSTRUMENT_TYPE=LC-ESI-QFT
INSTRUMENT=Q Exactive Orbitrap (Thermo Scientific)
COLLISION_ENERGY=30
FORMULA=C11H18N4O2
PARENT=239.1503
SPLASH=splash10-00e9-9620000000-fee75b9a68b8e9c6060a
NUM_PEAKS=11
COMPOUND_NAME=Pirimicarb
SPECTRUM_ID=MSBNK-LCSB-LU004402
ADDUCT=[M+H]+
MS_LEVEL=MS2
PRECURSOR_MZ=239.1503
IONMODE=positive
NOMINAL_MASS=238
PARENT_MASS=238.1430
56.0131 1.0 
72.0443 999.0 
85.0759 5.0 
137.0709 6.0 
150.1027 2.0 
166.0976 3.0 
167.1045 2.0 
182.1288 654.0 
194.0924 1.0 
195.1604 48.0 
239.1501 292.0 
END IONS

BEGIN IONS
SYNON=3-[butan-2-ylsulfanyl(ethoxy)phosphoryl]-1,3-thiazolidin-2-one
INCHIKEY=DUFVKSUJRWYZQP-UHFFFAOYSA-N
INCHI=InChI=1S/C9H18NO3PS2/c1-4-8(3)16-14(12,13-5-2)10-6-7-15-9(10)11/h8H,4-7H2,1-3H3
SMILES=CCOP(=O)(SC(C)CC)N1CCSC1=O
INSTRUMENT_TYPE=LC-ESI-QFT
INSTRUMENT=Q Exactive Orbitrap (Thermo Scientific)
COLLISION_ENERGY=15
FORMULA=C9H18NO3PS2
PARENT=284.0538
SPLASH=splash10-004i-0590000000-735a696102229c9b597f
NUM_PEAKS=9
COMPOUND_NAME=Fosthiazate
SPECTRUM_ID=MSBNK-LCSB-LU046301
ADDUCT=[M+H]+
MS_LEVEL=MS2
PRECURSOR_MZ=284.0538
IONMODE=positive
NOMINAL_MASS=283
PARENT_MASS=283.0466
57.07 4.0 
104.0165 480.0 
114.9615 10.0 
119.994 3.0 
153.0134 7.0 
181.0447 23.0 
199.9601 88.0 
227.9914 999.0 
284.0542 70.0 
END IONS

BEGIN IONS
SYNON=(2,6-dichloro-4-methylphenoxy)-dimethoxy-sulfanylidene-lambda5-phosphane
INCHIKEY=OBZIQQJJIKNWNO-UHFFFAOYSA-N
INCHI=InChI=1S/C9H11Cl2O3PS/c1-6-4-7(10)9(8(11)5-6)14-15(16,12-2)13-3/h4-5H,1-3H3
SMILES=COP(=S)(OC)OC1=C(Cl)C=C(C)C=C1Cl
INSTRUMENT_TYPE=LC-ESI-QFT
INSTRUMENT=Q Exactive Orbitrap (Thermo Scientific)
COLLISION_ENERGY=60
FORMULA=C9H11Cl2O3PS
PARENT=300.9616
SPLASH=splash10-0udu-2590000000-37e80f168608fcea2b2a
NUM_PEAKS=30
COMPOUND_NAME=Tolclofos-methyl
SPECTRUM_ID=MSBNK-LCSB-LU046104
ADDUCT=[M+H]+
MS_LEVEL=MS2
PRECURSOR_MZ=300.9616
IONMODE=positive
NOMINAL_MASS=300
PARENT_MASS=299.9544
62.0185 42.0 
65.0385 54.0 
78.9943 256.0 
79.0543 23.0 
91.0542 41.0 
93.01 77.0 
93.0336 25.0 
107.0491 28.0 
108.0569 15.0 
112.0076 12.0 
112.9378 78.0 
121.0284 33.0 
129.0101 35.0 
139.0059 50.0 
139.0387 12.0 
142.9928 573.0 
146.9764 130.0 
155.0259 22.0 
157.0085 18.0 
158.9763 33.0 
159.9796 19.0 
171.0211 29.0 
174.9714 326.0 
186.9715 60.0 
202.9661 960.0 
220.9767 135.0 
221.9402 28.0 
236.9269 62.0 
237.935 999.0 
252.9584 119.0 
END IONS

BEGIN IONS
SYNON=diethoxyphosphinothioylsulfanylmethylsulfanyl-diethoxy-sulfanylidene-lambda5-phosphane
INCHIKEY=RIZMRRKBZQXFOY-UHFFFAOYSA-N
INCHI=InChI=1S/C9H22O4P2S4/c1-5-10-14(16,11-6-2)18-9-19-15(17,12-7-3)13-8-4/h5-9H2,1-4H3
SMILES=CCOP(=S)(OCC)SCSP(=S)(OCC)OCC
INSTRUMENT_TYPE=LC-ESI-QFT
INSTRUMENT=Q Exactive Orbitrap (Thermo Scientific)
COLLISION_ENERGY=15
FORMULA=C9H22O4P2S4
PARENT=384.9949
SPLASH=splash10-014j-0950000000-e19ab87f70cf70354b7e
NUM_PEAKS=4
COMPOUND_NAME=Ethion
SPECTRUM_ID=MSBNK-LCSB-LU052101
ADDUCT=[M+H]+
MS_LEVEL=MS2
PRECURSOR_MZ=384.9949
IONMODE=positive
NOMINAL_MASS=384
PARENT_MASS=383.9876
142.9386 225.0 
170.97 476.0 
199.0012 944.0 
215.0324 999.0 
END IONS

BEGIN IONS
SYNON=3-[butan-2-ylsulfanyl(ethoxy)phosphoryl]-1,3-thiazolidin-2-one
INCHIKEY=DUFVKSUJRWYZQP-UHFFFAOYSA-N
INCHI=InChI=1S/C9H18NO3PS2/c1-4-8(3)16-14(12,13-5-2)10-6-7-15-9(10)11/h8H,4-7H2,1-3H3
SMILES=CCOP(=O)(SC(C)CC)N1CCSC1=O
INSTRUMENT_TYPE=LC-ESI-QFT
INSTRUMENT=Q Exactive Orbitrap (Thermo Scientific)
COLLISION_ENERGY=60
FORMULA=C9H18NO3PS2
PARENT=284.0538
SPLASH=splash10-0udi-0900000000-b1b811729c83e6df5dc8
NUM_PEAKS=16
COMPOUND_NAME=Fosthiazate
SPECTRUM_ID=MSBNK-LCSB-LU046304
ADDUCT=[M+H]+
MS_LEVEL=MS2
PRECURSOR_MZ=284.0538
IONMODE=positive
NOMINAL_MASS=283
PARENT_MASS=283.0466
55.0542 3.0 
57.0699 16.0 
61.0107 26.0 
76.0216 16.0 
104.0165 999.0 
114.9614 59.0 
119.9937 15.0 
121.9823 6.0 
124.0159 4.0 
137.9596 46.0 
139.9568 14.0 
139.993 6.0 
154.0653 3.0 
155.0685 7.0 
183.0873 6.0 
199.9601 12.0 
END IONS

BEGIN IONS
SYNON=methyl (1E)-N-[methyl-[methyl-[(E)-1-methylsulfanylethylideneamino]oxycarbonylamino]sulfanylcarbamoyl]oxyethanimidothioate
INCHIKEY=XDOTVMNBCQVZKG-MKICQXMISA-N
INCHI=InChI=1S/C10H18N4O4S3/c1-7(19-5)11-17-9(15)13(3)21-14(4)10(16)18-12-8(2)20-6/h1-6H3/b11-7+,12-8+
SMILES=CS\C(C)=N\OC(=O)N(C)SN(C)C(=O)O\N=C(/C)SC
INSTRUMENT_TYPE=LC-ESI-QFT
INSTRUMENT=Q Exactive Orbitrap (Thermo Scientific)
COLLISION_ENERGY=90
FORMULA=C10H18N4O4S3
PARENT=355.0563
SPLASH=splash10-0079-9000000000-19b9ed5a231efcd41ca2
NUM_PEAKS=8
COMPOUND_NAME=Thiodicarb
SPECTRUM_ID=MSBNK-LCSB-LU045706
ADDUCT=[M+H]+
MS_LEVEL=MS2
PRECURSOR_MZ=355.0563
IONMODE=positive
NOMINAL_MASS=354
PARENT_MASS=354.049
56.0495 143.0 
59.9903 166.0 
61.0105 82.0 
62.0058 337.0 
71.9903 107.0 
72.998 883.0 
78.967 167.0 
88.0216 999.0 
END IONS

BEGIN IONS
SYNON=[2-chloro-1-(2,4-dichlorophenyl)ethenyl] diethyl phosphate
INCHIKEY=FSAVDKDHPDSCTO-UHFFFAOYSA-N
INCHI=InChI=1S/C12H14Cl3O4P/c1-3-17-20(16,18-4-2)19-12(8-13)10-6-5-9(14)7-11(10)15/h5-8H,3-4H2,1-2H3
SMILES=CCOP(=O)(OCC)OC(=CCl)C1=C(Cl)C=C(Cl)C=C1
INSTRUMENT_TYPE=LC-ESI-QFT
INSTRUMENT=Q Exactive Orbitrap (Thermo Scientific)
COLLISION_ENERGY=90
FORMULA=C12H14Cl3O4P
PARENT=358.9768
SPLASH=splash10-00kb-8900000000-4c92e4b6980139ca9137
NUM_PEAKS=28
COMPOUND_NAME=Chlorfenvinphos
SPECTRUM_ID=MSBNK-LCSB-LU037606
ADDUCT=[M+H]+
MS_LEVEL=MS2
PRECURSOR_MZ=358.9768
IONMODE=positive
NOMINAL_MASS=358
PARENT_MASS=357.9695
75.0228 5.0 
77.0021 6.0 
80.9736 1.0 
84.9842 1.0 
89.0386 4.0 
98.0151 38.0 
98.9841 999.0 
108.9839 8.0 
109.0049 1.0 
110.9632 46.0 
112.9996 1.0 
116.9947 20.0 
122.9995 19.0 
124.0075 3.0 
131.0104 19.0 
132.9839 59.0 
133.9918 25.0 
144.9606 3.0 
150.9943 2.0 
152.0026 1.0 
158.9762 2.0 
163.0057 18.0 
168.9606 21.0 
169.9684 790.0 
172.9667 1.0 
186.9715 4.0 
196.9668 6.0 
200.9866 2.0 
END IONS

BEGIN IONS
SYNON=diethoxyphosphinothioylsulfanylmethylsulfanyl-diethoxy-sulfanylidene-lambda5-phosphane
INCHIKEY=RIZMRRKBZQXFOY-UHFFFAOYSA-N
INCHI=InChI=1S/C9H22O4P2S4/c1-5-10-14(16,11-6-2)18-9-19-15(17,12-7-3)13-8-4/h5-9H2,1-4H3
SMILES=CCOP(=S)(OCC)SCSP(=S)(OCC)OCC
INSTRUMENT_TYPE=LC-ESI-QFT
INSTRUMENT=Q Exactive Orbitrap (Thermo Scientific)
COLLISION_ENERGY=30
FORMULA=C9H22O4P2S4
PARENT=384.9949
SPLASH=splash10-01ox-0900000000-8c26a1eef2be50869a50
NUM_PEAKS=5
COMPOUND_NAME=Ethion
SPECTRUM_ID=MSBNK-LCSB-LU052102
ADDUCT=[M+H]+
MS_LEVEL=MS2
PRECURSOR_MZ=384.9949
IONMODE=positive
NOMINAL_MASS=384
PARENT_MASS=383.9876
114.9613 685.0 
142.9386 999.0 
170.9699 445.0 
199.0014 70.0 
215.0325 210.0 
END IONS

BEGIN IONS
SYNON=ethyl 2-diethoxyphosphinothioyloxy-5-methylpyrazolo[1,5-a]pyrimidine-6-carboxylate
INCHIKEY=JOOMJVFZQRQWKR-UHFFFAOYSA-N
INCHI=InChI=1S/C14H20N3O5PS/c1-5-19-14(18)11-9-17-12(15-10(11)4)8-13(16-17)22-23(24,20-6-2)21-7-3/h8-9H,5-7H2,1-4H3
SMILES=CCOC(=O)C1=CN2N=C(OP(=S)(OCC)OCC)C=C2N=C1C
INSTRUMENT_TYPE=LC-ESI-QFT
INSTRUMENT=Q Exactive Orbitrap (Thermo Scientific)
COLLISION_ENERGY=30
FORMULA=C14H20N3O5PS
PARENT=374.0934
SPLASH=splash10-00di-0192000000-6f62b2acf320326e0d08
NUM_PEAKS=42
COMPOUND_NAME=Pyrazophos
SPECTRUM_ID=MSBNK-LCSB-LU068502
ADDUCT=[M+H]+
MS_LEVEL=MS2
PRECURSOR_MZ=374.0934
IONMODE=positive
NOMINAL_MASS=373
PARENT_MASS=373.0861
64.9786 1.0 
82.9892 2.0 
93.01 5.0 
98.9842 1.0 
109.0048 1.0 
111.0205 2.0 
113.9535 16.0 
114.9613 22.0 
125.9898 1.0 
130.9561 5.0 
139.052 1.0 
140.9767 2.0 
141.9848 20.0 
142.9927 6.0 
149.0589 1.0 
170.016 43.0 
176.0454 9.0 
177.053 6.0 
183.0222 7.0 
192.0225 9.0 
194.056 98.0 
195.0763 2.0 
204.0767 1.0 
205.0846 43.0 
206.0923 4.0 
208.0176 3.0 
210.0332 53.0 
211.0535 50.0 
222.0872 999.0 
236.0488 54.0 
238.0643 336.0 
250.1182 4.0 
266.0956 8.0 
271.9893 3.0 
289.9994 5.0 
300.0202 20.0 
302.0533 2.0 
318.0308 64.0 
328.0515 15.0 
332.0469 2.0 
346.0621 116.0 
374.0934 140.0 
END IONS

BEGIN IONS
SYNON=N-[ethoxy-(3-methyl-4-methylsulfanylphenoxy)phosphoryl]propan-2-amine
INCHIKEY=ZCJPOPBZHLUFHF-UHFFFAOYSA-N
INCHI=InChI=1S/C13H22NO3PS/c1-6-16-18(15,14-10(2)3)17-12-7-8-13(19-5)11(4)9-12/h7-10H,6H2,1-5H3,(H,14,15)
SMILES=CCOP(=O)(NC(C)C)OC1=CC=C(SC)C(C)=C1
INSTRUMENT_TYPE=LC-ESI-QFT
INSTRUMENT=Q Exactive Orbitrap (Thermo Scientific)
COLLISION_ENERGY=45
FORMULA=C13H22NO3PS
PARENT=304.1131
SPLASH=splash10-014i-0190000000-259a7362558cbb468fd7
NUM_PEAKS=37
COMPOUND_NAME=Fenamiphos
SPECTRUM_ID=MSBNK-LCSB-LU109703
ADDUCT=[M+H]+
MS_LEVEL=MS2
PRECURSOR_MZ=304.1131
IONMODE=positive
NOMINAL_MASS=303
PARENT_MASS=303.1058
58.995 2.0 
60.0808 58.0 
79.0542 1.0 
91.0541 2.0 
93.0699 1.0 
97.0107 4.0 
97.0648 2.0 
98.0001 4.0 
103.0542 2.0 
107.0491 21.0 
108.057 5.0 
109.0648 3.0 
122.0185 1.0 
135.0262 1.0 
137.042 8.0 
139.0213 3.0 
140.0471 1.0 
150.0495 1.0 
153.0369 28.0 
154.0448 1.0 
155.0525 52.0 
165.0484 1.0 
168.9871 14.0 
186.9977 1.0 
198.9979 7.0 
201.0011 1.0 
201.9848 115.0 
202.9927 11.0 
216.0245 5.0 
217.0082 999.0 
230.0162 7.0 
234.0348 72.0 
235.0187 1.0 
245.0394 8.0 
249.0339 2.0 
262.0671 1.0 
276.0817 4.0 
END IONS

BEGIN IONS
SYNON=[2-(dimethylamino)-5,6-dimethylpyrimidin-4-yl] N,N-dimethylcarbamate
INCHIKEY=YFGYUFNIOHWBOB-UHFFFAOYSA-N
INCHI=InChI=1S/C11H18N4O2/c1-7-8(2)12-10(14(3)4)13-9(7)17-11(16)15(5)6/h1-6H3
SMILES=CN(C)C(=O)OC1=C(C)C(C)=NC(=N1)N(C)C
INSTRUMENT_TYPE=LC-ESI-QFT
INSTRUMENT=Q Exactive Orbitrap (Thermo Scientific)
COLLISION_ENERGY=15
FORMULA=C11H18N4O2
PARENT=239.1503
SPLASH=splash10-000i-3390000000-7eaea11d6e3f0b6793ac
NUM_PEAKS=7
COMPOUND_NAME=Pirimicarb
SPECTRUM_ID=MSBNK-LCSB-LU004401
ADDUCT=[M+H]+
MS_LEVEL=MS2
PRECURSOR_MZ=239.1503
IONMODE=positive
NOMINAL_MASS=238
PARENT_MASS=238.1430
72.0443 430.0 
166.0974 4.0 
167.1056 1.0 
182.1288 358.0 
194.0926 1.0 
195.1605 46.0 
239.1501 999.0 
END IONS

BEGIN IONS
SYNON=[2-chloro-1-(2,4-dichlorophenyl)ethenyl] diethyl phosphate
INCHIKEY=FSAVDKDHPDSCTO-UHFFFAOYSA-N
INCHI=InChI=1S/C12H14Cl3O4P/c1-3-17-20(16,18-4-2)19-12(8-13)10-6-5-9(14)7-11(10)15/h5-8H,3-4H2,1-2H3
SMILES=CCOP(=O)(OCC)OC(=CCl)C1=C(Cl)C=C(Cl)C=C1
INSTRUMENT_TYPE=LC-ESI-QFT
INSTRUMENT=Q Exactive Orbitrap (Thermo Scientific)
COLLISION_ENERGY=30
FORMULA=C12H14Cl3O4P
PARENT=358.9768
SPLASH=splash10-0kdj-4930000000-69682135fecceb5f49c8
NUM_PEAKS=12
COMPOUND_NAME=Chlorfenvinphos
SPECTRUM_ID=MSBNK-LCSB-LU037602
ADDUCT=[M+H]+
MS_LEVEL=MS2
PRECURSOR_MZ=358.9768
IONMODE=positive
NOMINAL_MASS=358
PARENT_MASS=357.9695
80.9735 1.0 
98.9842 842.0 
109.0049 8.0 
116.9947 13.0 
127.0155 999.0 
131.0104 15.0 
145.0261 2.0 
155.0468 574.0 
159.0418 4.0 
169.9685 64.0 
204.9374 738.0 
236.9633 6.0 
END IONS

BEGIN IONS
SYNON=[2-chloro-1-(2,4-dichlorophenyl)ethenyl] diethyl phosphate
INCHIKEY=FSAVDKDHPDSCTO-UHFFFAOYSA-N
INCHI=InChI=1S/C12H14Cl3O4P/c1-3-17-20(16,18-4-2)19-12(8-13)10-6-5-9(14)7-11(10)15/h5-8H,3-4H2,1-2H3
SMILES=CCOP(=O)(OCC)OC(=CCl)C1=C(Cl)C=C(Cl)C=C1
INSTRUMENT_TYPE=LC-ESI-QFT
INSTRUMENT=Q Exactive Orbitrap (Thermo Scientific)
COLLISION_ENERGY=60
FORMULA=C12H14Cl3O4P
PARENT=358.9768
SPLASH=splash10-00kb-9600000000-e05f507e6ba4e28d7530
NUM_PEAKS=17
COMPOUND_NAME=Chlorfenvinphos
SPECTRUM_ID=MSBNK-LCSB-LU037604
ADDUCT=[M+H]+
MS_LEVEL=MS2
PRECURSOR_MZ=358.9768
IONMODE=positive
NOMINAL_MASS=358
PARENT_MASS=357.9695
86.9633 1.0 
98.9842 999.0 
109.005 4.0 
116.9947 14.0 
122.9997 1.0 
127.0155 28.0 
131.0104 14.0 
132.984 1.0 
144.9607 1.0 
155.0466 1.0 
158.9763 2.0 
168.9607 15.0 
169.9684 611.0 
186.9712 2.0 
196.9669 6.0 
200.9867 3.0 
204.9374 87.0 
END IONS

BEGIN IONS
SYNON=[2-(dimethylamino)-5,6-dimethylpyrimidin-4-yl] N,N-dimethylcarbamate
INCHIKEY=YFGYUFNIOHWBOB-UHFFFAOYSA-N
INCHI=InChI=1S/C11H18N4O2/c1-7-8(2)12-10(14(3)4)13-9(7)17-11(16)15(5)6/h1-6H3
SMILES=CN(C)C(=O)OC1=C(C)C(C)=NC(=N1)N(C)C
INSTRUMENT_TYPE=LC-ESI-QFT
INSTRUMENT=Q Exactive Orbitrap (Thermo Scientific)
COLLISION_ENERGY=90
FORMULA=C11H18N4O2
PARENT=239.1503
SPLASH=splash10-00di-9100000000-62e3a45debf423c945b7
NUM_PEAKS=29
COMPOUND_NAME=Pirimicarb
SPECTRUM_ID=MSBNK-LCSB-LU004406
ADDUCT=[M+H]+
MS_LEVEL=MS2
PRECURSOR_MZ=239.1503
IONMODE=positive
NOMINAL_MASS=238
PARENT_MASS=238.1430
56.0131 27.0 
56.0494 4.0 
58.0651 10.0 
68.0495 2.0 
69.0447 2.0 
69.0573 9.0 
70.0526 2.0 
71.0604 6.0 
72.0443 999.0 
83.024 38.0 
85.076 90.0 
94.0526 4.0 
95.0604 2.0 
96.0444 1.0 
96.0682 1.0 
97.0523 1.0 
98.0601 1.0 
109.0761 80.0 
110.0601 1.0 
123.0553 4.0 
124.0632 6.0 
137.071 9.0 
138.0788 20.0 
139.0867 1.0 
150.1028 2.0 
152.0818 19.0 
166.0974 1.0 
167.1054 2.0 
182.1288 2.0 
END IONS

BEGIN IONS
SYNON=[2-chloro-1-(2,4-dichlorophenyl)ethenyl] diethyl phosphate
INCHIKEY=FSAVDKDHPDSCTO-UHFFFAOYSA-N
INCHI=InChI=1S/C12H14Cl3O4P/c1-3-17-20(16,18-4-2)19-12(8-13)10-6-5-9(14)7-11(10)15/h5-8H,3-4H2,1-2H3
SMILES=CCOP(=O)(OCC)OC(=CCl)C1=C(Cl)C=C(Cl)C=C1
INSTRUMENT_TYPE=LC-ESI-QFT
INSTRUMENT=Q Exactive Orbitrap (Thermo Scientific)
COLLISION_ENERGY=15
FORMULA=C12H14Cl3O4P
PARENT=358.9768
SPLASH=splash10-0a4i-0900000000-6fd59aa77f3f6fdc85c2
NUM_PEAKS=7
COMPOUND_NAME=Chlorfenvinphos
SPECTRUM_ID=MSBNK-LCSB-LU037601
ADDUCT=[M+H]+
MS_LEVEL=MS2
PRECURSOR_MZ=358.9768
IONMODE=positive
NOMINAL_MASS=358
PARENT_MASS=357.9695
98.9841 51.0 
127.0155 260.0 
155.0467 999.0 
159.0417 1.0 
169.9693 1.0 
204.9374 127.0 
236.9633 1.0 
END IONS

BEGIN IONS
SYNON=methyl (1E)-N-[methyl-[methyl-[(E)-1-methylsulfanylethylideneamino]oxycarbonylamino]sulfanylcarbamoyl]oxyethanimidothioate
INCHIKEY=XDOTVMNBCQVZKG-MKICQXMISA-N
INCHI=InChI=1S/C10H18N4O4S3/c1-7(19-5)11-17-9(15)13(3)21-14(4)10(16)18-12-8(2)20-6/h1-6H3/b11-7+,12-8+
SMILES=CS\C(C)=N\OC(=O)N(C)SN(C)C(=O)O\N=C(/C)SC
INSTRUMENT_TYPE=LC-ESI-QFT
INSTRUMENT=Q Exactive Orbitrap (Thermo Scientific)
COLLISION_ENERGY=75
FORMULA=C10H18N4O4S3
PARENT=355.0563
SPLASH=splash10-000i-9000000000-eeb1841a2791e451781d
NUM_PEAKS=8
COMPOUND_NAME=Thiodicarb
SPECTRUM_ID=MSBNK-LCSB-LU045705
ADDUCT=[M+H]+
MS_LEVEL=MS2
PRECURSOR_MZ=355.0563
IONMODE=positive
NOMINAL_MASS=354
PARENT_MASS=354.049
56.0495 68.0 
59.9904 90.0 
61.0107 100.0 
62.0059 241.0 
71.9903 55.0 
72.9981 326.0 
78.9672 139.0 
88.0217 999.0 
END IONS

BEGIN IONS
SYNON=diethoxy-[(1-phenyl-1,2,4-triazol-3-yl)oxy]-sulfanylidene-lambda5-phosphane
INCHIKEY=AMFGTOFWMRQMEM-UHFFFAOYSA-N
INCHI=InChI=1S/C12H16N3O3PS/c1-3-16-19(20,17-4-2)18-12-13-10-15(14-12)11-8-6-5-7-9-11/h5-10H,3-4H2,1-2H3
SMILES=CCOP(=S)(OCC)OC1=NN(C=N1)C1=CC=CC=C1
INSTRUMENT_TYPE=LC-ESI-QFT
INSTRUMENT=Q Exactive Orbitrap (Thermo Scientific)
COLLISION_ENERGY=90
FORMULA=C12H16N3O3PS
PARENT=314.0723
SPLASH=splash10-03xu-6900000000-f021e1bc0f1b81f0665c
NUM_PEAKS=61
COMPOUND_NAME=Triazophos
SPECTRUM_ID=MSBNK-LCSB-LU119306
ADDUCT=[M+H]+
MS_LEVEL=MS2
PRECURSOR_MZ=314.0723
IONMODE=positive
NOMINAL_MASS=313
PARENT_MASS=313.0650
50.0151 1.0 
51.0229 1.0 
53.0386 85.0 
55.0178 4.0 
59.0242 1.0 
59.9903 6.0 
63.0228 1.0 
64.9787 109.0 
65.0385 328.0 
74.0963 1.0 
75.0011 1.0 
77.0385 36.0 
78.9402 10.0 
78.9943 3.0 
79.0541 8.0 
80.0493 4.0 
80.9735 1.0 
81.0335 10.0 
86.0348 3.0 
89.0385 4.0 
90.0338 5.0 
91.0543 9.0 
92.0494 751.0 
93.0573 132.0 
94.0413 9.0 
95.0491 262.0 
96.9507 43.0 
103.0416 22.0 
104.0494 159.0 
105.0447 103.0 
106.0651 4.0 
107.0603 9.0 
109.0105 2.0 
109.0649 1.0 
110.06 36.0 
110.9663 3.0 
111.0441 3.0 
112.9997 4.0 
114.9613 999.0 
116.0494 7.0 
116.9655 3.0 
117.0446 12.0 
118.0525 10.0 
119.0604 899.0 
120.0681 110.0 
123.0554 1.0 
124.0215 3.0 
124.0757 7.0 
128.9769 36.0 
130.0399 6.0 
132.0441 1.0 
132.9718 8.0 
134.0599 1.0 
135.0551 5.0 
136.0215 2.0 
144.0555 2.0 
145.0396 56.0 
146.9875 5.0 
151.0323 1.0 
162.0661 145.0 
178.0434 11.0 
END IONS

BEGIN IONS
SYNON=N-[ethoxy-(3-methyl-4-methylsulfanylphenoxy)phosphoryl]propan-2-amine
INCHIKEY=ZCJPOPBZHLUFHF-UHFFFAOYSA-N
INCHI=InChI=1S/C13H22NO3PS/c1-6-16-18(15,14-10(2)3)17-12-7-8-13(19-5)11(4)9-12/h7-10H,6H2,1-5H3,(H,14,15)
SMILES=CCOP(=O)(NC(C)C)OC1=CC=C(SC)C(C)=C1
INSTRUMENT_TYPE=LC-ESI-QFT
INSTRUMENT=Q Exactive Orbitrap (Thermo Scientific)
COLLISION_ENERGY=90
FORMULA=C13H22NO3PS
PARENT=304.1131
SPLASH=splash10-0udi-4940000000-fcd06765b2437ae0231c
NUM_PEAKS=85
COMPOUND_NAME=Fenamiphos
SPECTRUM_ID=MSBNK-LCSB-LU109706
ADDUCT=[M+H]+
MS_LEVEL=MS2
PRECURSOR_MZ=304.1131
IONMODE=positive
NOMINAL_MASS=303
PARENT_MASS=303.1058
53.0023 4.0 
53.0386 50.0 
55.0179 3.0 
58.0651 1.0 
58.995 76.0 
59.9665 8.0 
60.0808 7.0 
62.9453 40.0 
65.0386 31.0 
66.0464 29.0 
67.0542 14.0 
68.9793 3.0 
70.995 11.0 
77.0384 15.0 
78.0464 128.0 
79.0542 173.0 
80.0493 1.0 
80.0621 14.0 
81.0334 4.0 
81.0699 12.0 
89.0385 12.0 
90.0464 11.0 
91.0543 256.0 
92.0621 8.0 
93.0699 43.0 
94.0413 9.0 
95.0492 118.0 
96.0027 1.0 
97.0107 238.0 
98.0002 54.0 
102.0464 3.0 
103.0543 64.0 
104.062 60.0 
105.0335 8.0 
105.0448 41.0 
105.0699 10.0 
106.0413 26.0 
106.065 5.0 
107.0492 230.0 
108.057 176.0 
109.0107 33.0 
109.0648 92.0 
110.0185 275.0 
111.0263 50.0 
112.0159 1.0 
115.0541 4.0 
117.0698 7.0 
119.0604 4.0 
121.0107 146.0 
122.0185 270.0 
123.0264 5.0 
125.0419 39.0 
125.0595 2.0 
134.0184 10.0 
134.0965 1.0 
135.0263 30.0 
136.0342 5.0 
137.0056 41.0 
137.0421 18.0 
138.0134 344.0 
139.0212 59.0 
140.029 22.0 
141.01 15.0 
149.0419 5.0 
150.0493 1.0 
151.0212 9.0 
153.0369 68.0 
154.0447 8.0 
154.9715 37.0 
155.0256 2.0 
155.0526 5.0 
168.9873 132.0 
169.0049 231.0 
180.9871 3.0 
183.9744 7.0 
184.9817 5.0 
186.9974 1.0 
187.0156 7.0 
187.0398 1.0 
198.9979 8.0 
200.9771 109.0 
201.9848 999.0 
202.9925 64.0 
214.9925 26.0 
217.0083 29.0 
END IONS

BEGIN IONS
SYNON=diethoxy-[(1-phenyl-1,2,4-triazol-3-yl)oxy]-sulfanylidene-lambda5-phosphane
INCHIKEY=AMFGTOFWMRQMEM-UHFFFAOYSA-N
INCHI=InChI=1S/C12H16N3O3PS/c1-3-16-19(20,17-4-2)18-12-13-10-15(14-12)11-8-6-5-7-9-11/h5-10H,3-4H2,1-2H3
SMILES=CCOP(=S)(OCC)OC1=NN(C=N1)C1=CC=CC=C1
INSTRUMENT_TYPE=LC-ESI-QFT
INSTRUMENT=Q Exactive Orbitrap (Thermo Scientific)
COLLISION_ENERGY=75
FORMULA=C12H16N3O3PS
PARENT=314.0723
SPLASH=splash10-03xr-2900000000-b28dafa2f1aeb8b3084f
NUM_PEAKS=57
COMPOUND_NAME=Triazophos
SPECTRUM_ID=MSBNK-LCSB-LU119305
ADDUCT=[M+H]+
MS_LEVEL=MS2
PRECURSOR_MZ=314.0723
IONMODE=positive
NOMINAL_MASS=313
PARENT_MASS=313.0650
53.0386 32.0 
55.0178 1.0 
59.9902 3.0 
64.9786 29.0 
65.0385 80.0 
74.0964 1.0 
75.0011 1.0 
77.0384 13.0 
78.9402 4.0 
79.0541 4.0 
80.0495 1.0 
80.9735 1.0 
81.0335 2.0 
90.0338 1.0 
91.0542 7.0 
92.0494 413.0 
93.0573 38.0 
94.0413 2.0 
95.0491 108.0 
96.9508 36.0 
103.0416 7.0 
104.0494 81.0 
105.0335 2.0 
105.0447 42.0 
106.065 3.0 
107.0602 6.0 
109.0106 1.0 
109.0648 1.0 
110.06 18.0 
110.9664 2.0 
111.0441 1.0 
112.9997 3.0 
114.9613 810.0 
116.0495 3.0 
116.9656 2.0 
117.0447 10.0 
118.0524 5.0 
119.0604 999.0 
120.0681 133.0 
123.0552 2.0 
124.0214 3.0 
124.0756 5.0 
124.9823 1.0 
128.9769 30.0 
130.0401 2.0 
132.0442 1.0 
132.9718 6.0 
134.06 2.0 
135.0552 4.0 
136.0215 3.0 
144.0557 2.0 
145.0396 89.0 
146.9874 5.0 
151.0325 3.0 
161.0166 1.0 
162.0661 436.0 
178.0432 34.0 
END IONS

BEGIN IONS
SYNON=diethoxy-[(1-phenyl-1,2,4-triazol-3-yl)oxy]-sulfanylidene-lambda5-phosphane
INCHIKEY=AMFGTOFWMRQMEM-UHFFFAOYSA-N
INCHI=InChI=1S/C12H16N3O3PS/c1-3-16-19(20,17-4-2)18-12-13-10-15(14-12)11-8-6-5-7-9-11/h5-10H,3-4H2,1-2H3
SMILES=CCOP(=S)(OCC)OC1=NN(C=N1)C1=CC=CC=C1
INSTRUMENT_TYPE=LC-ESI-QFT
INSTRUMENT=Q Exactive Orbitrap (Thermo Scientific)
COLLISION_ENERGY=15
FORMULA=C12H16N3O3PS
PARENT=314.0723
SPLASH=splash10-03di-0519000000-ea119fa0747eff8b66c8
NUM_PEAKS=13
COMPOUND_NAME=Triazophos
SPECTRUM_ID=MSBNK-LCSB-LU119301
ADDUCT=[M+H]+
MS_LEVEL=MS2
PRECURSOR_MZ=314.0723
IONMODE=positive
NOMINAL_MASS=313
PARENT_MASS=313.0650
77.0388 1.0 
96.9516 1.0 
114.9613 3.0 
124.983 1.0 
153.0129 1.0 
162.066 549.0 
171.0238 3.0 
178.0433 12.0 
190.0974 8.0 
206.0749 1.0 
258.0097 14.0 
286.0409 134.0 
314.0722 999.0 
END IONS

BEGIN IONS
SYNON=(2,6-dichloro-4-methylphenoxy)-dimethoxy-sulfanylidene-lambda5-phosphane
INCHIKEY=OBZIQQJJIKNWNO-UHFFFAOYSA-N
INCHI=InChI=1S/C9H11Cl2O3PS/c1-6-4-7(10)9(8(11)5-6)14-15(16,12-2)13-3/h4-5H,1-3H3
SMILES=COP(=S)(OC)OC1=C(Cl)C=C(C)C=C1Cl
INSTRUMENT_TYPE=LC-ESI-QFT
INSTRUMENT=Q Exactive Orbitrap (Thermo Scientific)
COLLISION_ENERGY=75
FORMULA=C9H11Cl2O3PS
PARENT=300.9616
SPLASH=splash10-0f6t-9570000000-bd6f6cf84fd4bca2ab5c
NUM_PEAKS=37
COMPOUND_NAME=Tolclofos-methyl
SPECTRUM_ID=MSBNK-LCSB-LU046105
ADDUCT=[M+H]+
MS_LEVEL=MS2
PRECURSOR_MZ=300.9616
IONMODE=positive
NOMINAL_MASS=300
PARENT_MASS=299.9544
51.023 16.0 
53.0386 13.0 
62.0185 23.0 
65.0386 78.0 
75.0229 11.0 
76.9609 30.0 
77.0386 11.0 
78.9944 226.0 
79.0542 23.0 
86.9998 22.0 
91.0543 34.0 
93.0101 35.0 
93.0335 37.0 
95.0494 15.0 
96.9605 899.0 
107.0492 12.0 
108.0571 17.0 
110.9996 14.0 
112.0075 86.0 
112.9378 14.0 
117.0698 10.0 
121.0285 15.0 
128.0024 13.0 
129.0102 60.0 
139.0059 142.0 
139.0391 9.0 
141.0104 16.0 
142.9927 202.0 
146.9764 107.0 
157.0085 10.0 
158.9766 9.0 
174.9713 118.0 
202.9661 999.0 
216.9819 14.0 
220.9769 18.0 
236.9271 88.0 
237.9348 144.0 
END IONS

BEGIN IONS
SYNON=6-chloro-3-(diethoxyphosphinothioylsulfanylmethyl)-1,3-benzoxazol-2-one
INCHIKEY=IOUNQDKNJZEDEP-UHFFFAOYSA-N
INCHI=InChI=1S/C12H15ClNO4PS2/c1-3-16-19(20,17-4-2)21-8-14-10-6-5-9(13)7-11(10)18-12(14)15/h5-7H,3-4,8H2,1-2H3
SMILES=CCOP(=S)(OCC)SCN1C(=O)OC2=CC(Cl)=CC=C12
INSTRUMENT_TYPE=LC-ESI-QFT
INSTRUMENT=Q Exactive Orbitrap (Thermo Scientific)
COLLISION_ENERGY=30
FORMULA=C12H15ClNO4PS2
PARENT=367.9941
SPLASH=splash10-01qa-9600000000-b52456bb53096321df0f
NUM_PEAKS=36
COMPOUND_NAME=Phosalone
SPECTRUM_ID=MSBNK-LCSB-LU017502
ADDUCT=[M+H]+
MS_LEVEL=MS2
PRECURSOR_MZ=367.9941
IONMODE=positive
NOMINAL_MASS=367
PARENT_MASS=366.9869
55.0543 165.0 
57.0699 304.0 
67.0542 91.0 
69.0699 733.0 
71.049 25.0 
71.0855 240.0 
81.0699 205.0 
83.0855 827.0 
85.0649 31.0 
85.1012 152.0 
93.0699 46.0 
95.0855 248.0 
97.1012 999.0 
99.0803 27.0 
100.0757 19.0 
101.0596 18.0 
105.0698 24.0 
107.0854 97.0 
109.1013 208.0 
111.0806 59.0 
111.1168 483.0 
114.9614 302.0 
119.0857 44.0 
121.1012 116.0 
123.1168 117.0 
125.096 102.0 
133.1011 102.0 
135.1169 113.0 
137.0961 49.0 
138.0106 56.0 
139.1117 74.0 
147.1169 118.0 
151.1122 75.0 
170.0005 62.0 
182.0004 679.0 
322.0057 19.0 
END IONS

BEGIN IONS
SYNON=(2,6-dichloro-4-methylphenoxy)-dimethoxy-sulfanylidene-lambda5-phosphane
INCHIKEY=OBZIQQJJIKNWNO-UHFFFAOYSA-N
INCHI=InChI=1S/C9H11Cl2O3PS/c1-6-4-7(10)9(8(11)5-6)14-15(16,12-2)13-3/h4-5H,1-3H3
SMILES=COP(=S)(OC)OC1=C(Cl)C=C(C)C=C1Cl
INSTRUMENT_TYPE=LC-ESI-QFT
INSTRUMENT=Q Exactive Orbitrap (Thermo Scientific)
COLLISION_ENERGY=90
FORMULA=C9H11Cl2O3PS
PARENT=300.9616
SPLASH=splash10-0udj-9460000000-b633e85330a4161bcb9b
NUM_PEAKS=33
COMPOUND_NAME=Tolclofos-methyl
SPECTRUM_ID=MSBNK-LCSB-LU046106
ADDUCT=[M+H]+
MS_LEVEL=MS2
PRECURSOR_MZ=300.9616
IONMODE=positive
NOMINAL_MASS=300
PARENT_MASS=299.9544
51.023 28.0 
53.0387 28.0 
62.0185 15.0 
65.0386 148.0 
75.0229 59.0 
76.961 48.0 
77.0386 32.0 
78.9943 321.0 
79.0543 28.0 
86.9997 47.0 
91.0543 69.0 
93.0101 36.0 
93.0336 62.0 
95.0492 67.0 
96.9605 767.0 
107.0494 14.0 
108.0572 30.0 
110.9998 46.0 
112.0074 241.0 
117.07 18.0 
128.0024 30.0 
139.0059 216.0 
141.0106 15.0 
142.9924 60.0 
146.9765 53.0 
158.9763 19.0 
159.9795 16.0 
174.9714 34.0 
186.9714 24.0 
202.966 999.0 
216.9817 12.0 
236.9272 163.0 
237.9354 27.0 
END IONS

BEGIN IONS
SYNON=[2-chloro-1-(2,4-dichlorophenyl)ethenyl] diethyl phosphate
INCHIKEY=FSAVDKDHPDSCTO-UHFFFAOYSA-N
INCHI=InChI=1S/C12H14Cl3O4P/c1-3-17-20(16,18-4-2)19-12(8-13)10-6-5-9(14)7-11(10)15/h5-8H,3-4H2,1-2H3
SMILES=CCOP(=O)(OCC)OC(=CCl)C1=C(Cl)C=C(Cl)C=C1
INSTRUMENT_TYPE=LC-ESI-QFT
INSTRUMENT=Q Exactive Orbitrap (Thermo Scientific)
COLLISION_ENERGY=45
FORMULA=C12H14Cl3O4P
PARENT=358.9768
SPLASH=splash10-0002-9220000000-ca4c9f19554a9d7938e8
NUM_PEAKS=9
COMPOUND_NAME=Chlorfenvinphos
SPECTRUM_ID=MSBNK-LCSB-LU037603
ADDUCT=[M+H]+
MS_LEVEL=MS2
PRECURSOR_MZ=358.9768
IONMODE=positive
NOMINAL_MASS=358
PARENT_MASS=357.9695
80.9735 1.0 
98.9841 999.0 
109.0049 5.0 
116.9947 13.0 
127.0154 202.0 
131.0103 13.0 
155.0467 25.0 
168.9606 2.0 
204.9373 321.0 
END IONS

BEGIN IONS
SYNON=(2,6-dichloro-4-methylphenoxy)-dimethoxy-sulfanylidene-lambda5-phosphane
INCHIKEY=OBZIQQJJIKNWNO-UHFFFAOYSA-N
INCHI=InChI=1S/C9H11Cl2O3PS/c1-6-4-7(10)9(8(11)5-6)14-15(16,12-2)13-3/h4-5H,1-3H3
SMILES=COP(=S)(OC)OC1=C(Cl)C=C(C)C=C1Cl
INSTRUMENT_TYPE=LC-ESI-QFT
INSTRUMENT=Q Exactive Orbitrap (Thermo Scientific)
COLLISION_ENERGY=45
FORMULA=C9H11Cl2O3PS
PARENT=300.9616
SPLASH=splash10-0f7d-2490000000-87f256b45d06c1c01892
NUM_PEAKS=21
COMPOUND_NAME=Tolclofos-methyl
SPECTRUM_ID=MSBNK-LCSB-LU046103
ADDUCT=[M+H]+
MS_LEVEL=MS2
PRECURSOR_MZ=300.9616
IONMODE=positive
NOMINAL_MASS=300
PARENT_MASS=299.9544
78.9943 61.0 
93.0101 14.0 
93.0334 6.0 
96.9605 511.0 
107.0491 6.0 
112.9375 28.0 
121.0284 11.0 
124.9822 13.0 
142.9927 605.0 
146.9763 13.0 
155.0258 34.0 
171.0209 51.0 
174.9713 205.0 
216.9817 19.0 
220.9766 170.0 
221.9401 28.0 
236.9279 10.0 
237.9349 999.0 
252.9584 802.0 
286.946 27.0 
300.9623 15.0 
END IONS

BEGIN IONS
SYNON=ethyl 2-diethoxyphosphinothioyloxy-5-methylpyrazolo[1,5-a]pyrimidine-6-carboxylate
INCHIKEY=JOOMJVFZQRQWKR-UHFFFAOYSA-N
INCHI=InChI=1S/C14H20N3O5PS/c1-5-19-14(18)11-9-17-12(15-10(11)4)8-13(16-17)22-23(24,20-6-2)21-7-3/h8-9H,5-7H2,1-4H3
SMILES=CCOC(=O)C1=CN2N=C(OP(=S)(OCC)OCC)C=C2N=C1C
INSTRUMENT_TYPE=LC-ESI-QFT
INSTRUMENT=Q Exactive Orbitrap (Thermo Scientific)
COLLISION_ENERGY=90
FORMULA=C14H20N3O5PS
PARENT=374.0934
SPLASH=splash10-03fv-3900000000-dd1dad82958d240a4c2a
NUM_PEAKS=139
COMPOUND_NAME=Pyrazophos
SPECTRUM_ID=MSBNK-LCSB-LU068506
ADDUCT=[M+H]+
MS_LEVEL=MS2
PRECURSOR_MZ=374.0934
IONMODE=positive
NOMINAL_MASS=373
PARENT_MASS=373.0861
51.023 1.0 
52.0181 7.0 
53.0022 26.0 
54.0338 66.0 
55.0178 12.0 
55.0291 2.0 
56.0495 57.0 
61.0106 4.0 
64.9786 262.0 
65.0385 35.0 
66.0338 108.0 
67.0178 24.0 
67.029 8.0 
67.0415 14.0 
68.013 135.0 
68.0494 34.0 
70.0287 29.0 
71.0126 5.0 
74.0964 3.0 
78.0338 69.0 
78.9402 7.0 
78.9943 15.0 
79.0291 7.0 
80.013 66.0 
80.0368 4.0 
80.0494 11.0 
81.0447 60.0 
82.0288 23.0 
82.0525 4.0 
82.9892 6.0 
83.0127 11.0 
83.0604 4.0 
84.0444 11.0 
92.0368 2.0 
92.0494 51.0 
93.0447 400.0 
94.0287 232.0 
94.0652 12.0 
95.0604 85.0 
96.0444 14.0 
96.9508 24.0 
97.0396 8.0 
98.9842 183.0 
99.0553 31.0 
100.0393 36.0 
104.0368 8.0 
105.0447 54.0 
106.0288 24.0 
106.0525 9.0 
107.0239 6.0 
107.0604 1.0 
108.0318 9.0 
108.0444 5.0 
109.0048 5.0 
109.0396 27.0 
110.0237 7.0 
110.0349 19.0 
110.06 19.0 
111.0316 10.0 
111.0553 96.0 
112.0393 48.0 
112.9998 5.0 
113.9535 106.0 
114.9613 999.0 
119.024 13.0 
120.0556 338.0 
121.0396 226.0 
122.0236 3.0 
122.0712 19.0 
123.0551 7.0 
124.0393 9.0 
124.0507 11.0 
126.0423 6.0 
127.0501 3.0 
128.0342 2.0 
128.0452 8.0 
128.9769 40.0 
130.0399 24.0 
130.9561 8.0 
131.0107 2.0 
131.0239 19.0 
131.0478 41.0 
131.0602 2.0 
132.0556 6.0 
132.9605 10.0 
132.9719 7.0 
133.0397 14.0 
133.0634 16.0 
134.0474 15.0 
135.0429 2.0 
137.0168 13.0 
137.0345 14.0 
138.0551 2.0 
138.0665 6.0 
139.0502 301.0 
146.9875 11.0 
148.0505 774.0 
149.0345 95.0 
149.0582 12.0 
150.0662 28.0 
151.05 2.0 
152.0456 3.0 
152.0579 16.0 
153.0659 3.0 
155.0451 9.0 
159.0427 168.0 
160.0505 32.0 
162.9959 3.0 
164.0454 2.0 
165.0117 98.0 
166.0611 395.0 
167.0452 5.0 
169.0368 18.0 
169.0609 1.0 
170.9636 2.0 
172.9668 1.0 
175.0377 11.0 
176.0454 671.0 
177.0295 65.0 
177.0532 219.0 
178.061 40.0 
180.0765 17.0 
181.0066 28.0 
182.014 2.0 
183.0223 95.0 
190.0068 2.0 
192.0225 2.0 
193.0487 2.0 
194.056 274.0 
196.9667 1.0 
199.0172 43.0 
207.0097 6.0 
208.0717 20.0 
210.0333 2.0 
213.0329 9.0 
222.0065 5.0 
222.9698 4.0 
240.0165 7.0 
256.0113 3.0 
END IONS

BEGIN IONS
SYNON=diethoxy-[(1-phenyl-1,2,4-triazol-3-yl)oxy]-sulfanylidene-lambda5-phosphane
INCHIKEY=AMFGTOFWMRQMEM-UHFFFAOYSA-N
INCHI=InChI=1S/C12H16N3O3PS/c1-3-16-19(20,17-4-2)18-12-13-10-15(14-12)11-8-6-5-7-9-11/h5-10H,3-4H2,1-2H3
SMILES=CCOP(=S)(OCC)OC1=NN(C=N1)C1=CC=CC=C1
INSTRUMENT_TYPE=LC-ESI-QFT
INSTRUMENT=Q Exactive Orbitrap (Thermo Scientific)
COLLISION_ENERGY=45
FORMULA=C12H16N3O3PS
PARENT=314.0723
SPLASH=splash10-03di-0900000000-2f3f6289077d100cedcf
NUM_PEAKS=20
COMPOUND_NAME=Triazophos
SPECTRUM_ID=MSBNK-LCSB-LU119303
ADDUCT=[M+H]+
MS_LEVEL=MS2
PRECURSOR_MZ=314.0723
IONMODE=positive
NOMINAL_MASS=313
PARENT_MASS=313.0650
77.0387 2.0 
92.0494 6.0 
96.9507 9.0 
104.0494 1.0 
114.9613 252.0 
119.0604 147.0 
120.0682 11.0 
124.9821 4.0 
128.9769 8.0 
132.972 2.0 
142.9924 1.0 
145.0397 8.0 
146.9875 1.0 
147.0915 1.0 
162.0661 999.0 
171.0241 3.0 
178.0433 83.0 
190.0973 8.0 
239.999 1.0 
258.01 3.0 
END IONS

BEGIN IONS
SYNON=[2-(dimethylamino)-5,6-dimethylpyrimidin-4-yl] N,N-dimethylcarbamate
INCHIKEY=YFGYUFNIOHWBOB-UHFFFAOYSA-N
INCHI=InChI=1S/C11H18N4O2/c1-7-8(2)12-10(14(3)4)13-9(7)17-11(16)15(5)6/h1-6H3
SMILES=CN(C)C(=O)OC1=C(C)C(C)=NC(=N1)N(C)C
INSTRUMENT_TYPE=LC-ESI-QFT
INSTRUMENT=Q Exactive Orbitrap (Thermo Scientific)
COLLISION_ENERGY=75
FORMULA=C11H18N4O2
PARENT=239.1503
SPLASH=splash10-00di-9100000000-e021fac3342831d0cef6
NUM_PEAKS=23
COMPOUND_NAME=Pirimicarb
SPECTRUM_ID=MSBNK-LCSB-LU004405
ADDUCT=[M+H]+
MS_LEVEL=MS2
PRECURSOR_MZ=239.1503
IONMODE=positive
NOMINAL_MASS=238
PARENT_MASS=238.1430
56.0131 14.0 
56.0495 1.0 
58.0651 3.0 
68.0494 1.0 
69.0573 2.0 
71.0604 3.0 
72.0443 999.0 
83.0239 34.0 
85.076 99.0 
94.0524 1.0 
96.0443 1.0 
109.076 79.0 
124.063 3.0 
137.0709 24.0 
138.0787 24.0 
139.0865 1.0 
150.1026 13.0 
152.0818 16.0 
166.0973 1.0 
167.1052 7.0 
180.113 1.0 
182.1288 18.0 
195.1605 1.0 
END IONS

BEGIN IONS
SYNON=6-chloro-3-(diethoxyphosphinothioylsulfanylmethyl)-1,3-benzoxazol-2-one
INCHIKEY=IOUNQDKNJZEDEP-UHFFFAOYSA-N
INCHI=InChI=1S/C12H15ClNO4PS2/c1-3-16-19(20,17-4-2)21-8-14-10-6-5-9(13)7-11(10)18-12(14)15/h5-7H,3-4,8H2,1-2H3
SMILES=CCOP(=S)(OCC)SCN1C(=O)OC2=CC(Cl)=CC=C12
INSTRUMENT_TYPE=LC-ESI-QFT
INSTRUMENT=Q Exactive Orbitrap (Thermo Scientific)
COLLISION_ENERGY=15
FORMULA=C12H15ClNO4PS2
PARENT=367.9941
SPLASH=splash10-001i-1903000000-e8ce8cf35e03b1822842
NUM_PEAKS=7
COMPOUND_NAME=Phosalone
SPECTRUM_ID=MSBNK-LCSB-LU017501
ADDUCT=[M+H]+
MS_LEVEL=MS2
PRECURSOR_MZ=367.9941
IONMODE=positive
NOMINAL_MASS=367
PARENT_MASS=366.9869
57.07 16.0 
71.0855 18.0 
83.0855 50.0 
97.1012 99.0 
111.1171 74.0 
182.0004 999.0 
322.0068 384.0 
END IONS

BEGIN IONS
INCHIKEY=YASYVMFAVPKPKE-UHFFFAOYSA-N
INCHI=InChI=1S/C4H10NO3PS/c1-4(6)5-9(7,8-2)10-3/h1-3H3,(H,5,6,7)
SMILES=CC(=O)NP(=O)(OC)SC
INSTRUMENT_TYPE=GC-EI-Q
INSTRUMENT=GCMS-QP2010 Plus, Shimadzu
FORMULA=C4H10NO3PS
PARENT=183.01
SPLASH=splash10-0006-9300000000-8dd03ecfc791e2a83e25
NUM_PEAKS=109
COMPOUND_NAME=Acephate
SPECTRUM_ID=MSBNK-MSSJ-MSJ01069
MS_LEVEL=MS
PRECURSOR_MZ=183.01
IONMODE=positive
NOMINAL_MASS=183
PARENT_MASS=183.01190
40.0 8.0 
41.0 418.0 
42.0 806.0 
43.0 681.0 
45.0 107.0 
46.0 97.0 
47.0 283.0 
48.0 118.0 
51.0 5.0 
53.0 10.0 
56.0 134.0 
57.0 51.0 
58.0 102.0 
59.0 7.0 
60.0 34.0 
61.0 11.0 
62.0 82.0 
64.0 49.0 
65.0 33.0 
66.0 24.0 
68.0 37.0 
70.0 9.0 
76.0 26.0 
77.0 24.0 
79.0 112.0 
80.0 26.0 
81.0 30.0 
86.0 51.0 
90.0 9.0 
94.0 370.0 
95.0 289.0 
96.0 206.0 
97.0 47.0 
98.0 7.0 
101.0 9.0 
104.0 31.0 
105.0 37.0 
106.0 41.0 
109.0 35.0 
110.0 36.0 
112.0 11.0 
119.0 32.0 
121.0 16.0 
124.0 53.0 
125.0 81.0 
128.0 7.0 
130.0 16.0 
131.0 20.0 
134.0 20.0 
136.0 999.0 
137.0 57.0 
138.0 18.0 
141.0 5.0 
142.0 102.0 
144.0 6.0 
154.0 6.0 
155.0 18.0 
160.0 7.0 
164.0 5.0 
172.0 23.0 
174.0 18.0 
179.0 31.0 
210.0 65.0 
228.0 9.0 
235.0 11.0 
241.0 14.0 
247.0 9.0 
260.0 5.0 
264.0 9.0 
275.0 15.0 
282.0 8.0 
287.0 18.0 
290.0 5.0 
307.0 7.0 
313.0 10.0 
315.0 8.0 
316.0 8.0 
333.0 14.0 
335.0 15.0 
339.0 8.0 
354.0 13.0 
366.0 10.0 
367.0 5.0 
381.0 18.0 
390.0 14.0 
391.0 5.0 
426.0 5.0 
429.0 5.0 
440.0 9.0 
442.0 7.0 
448.0 5.0 
452.0 7.0 
455.0 5.0 
462.0 10.0 
465.0 5.0 
471.0 6.0 
475.0 6.0 
478.0 5.0 
482.0 5.0 
516.0 7.0 
530.0 19.0 
531.0 6.0 
539.0 6.0 
550.0 7.0 
560.0 5.0 
563.0 5.0 
566.0 6.0 
590.0 9.0 
594.0 19.0 
END IONS

BEGIN IONS
INCHIKEY=CJJOSEISRRTUQB-UHFFFAOYSA-N
INCHI=InChI=1S/C10H12N3O3PS2/c1-15-17(18,16-2)19-7-13-10(14)8-5-3-4-6-9(8)11-12-13/h3-6H,7H2,1-2H3
SMILES=[H]c(c([H])2)c([H])c(N=1)c(c([H])2)C(=O)N(N1)C([H])([H])SP(=S)(OC([H])([H])[H])OC([H])([H])[H]
INSTRUMENT_TYPE=GC-EI-Q
INSTRUMENT=GCMS-QP2010 Plus, Shimadzu
FORMULA=C10H12N3O3PS2
PARENT=317.01
SPLASH=splash10-0h0r-9800000000-81a9e77b860eaa92c697
NUM_PEAKS=107
COMPOUND_NAME=Azinphos-methyl
SPECTRUM_ID=MSBNK-MSSJ-MSJ01066
MS_LEVEL=MS
PRECURSOR_MZ=317.01
IONMODE=positive
NOMINAL_MASS=317
PARENT_MASS=317.00577
40.0 8.0 
41.0 38.0 
42.0 38.0 
43.0 79.0 
44.0 112.0 
45.0 75.0 
46.0 47.0 
47.0 163.0 
48.0 27.0 
49.0 25.0 
50.0 170.0 
51.0 215.0 
52.0 30.0 
53.0 13.0 
54.0 18.0 
55.0 39.0 
56.0 35.0 
57.0 56.0 
58.0 9.0 
59.0 13.0 
62.0 73.0 
63.0 230.0 
64.0 64.0 
65.0 26.0 
67.0 6.0 
69.0 18.0 
70.0 39.0 
71.0 25.0 
72.0 11.0 
74.0 53.0 
75.0 47.0 
76.0 283.0 
77.0 999.0 
78.0 139.0 
79.0 100.0 
80.0 29.0 
81.0 7.0 
82.0 15.0 
83.0 5.0 
88.0 5.0 
89.0 7.0 
90.0 47.0 
91.0 12.0 
92.0 31.0 
93.0 314.0 
94.0 35.0 
95.0 31.0 
96.0 7.0 
97.0 9.0 
98.0 8.0 
99.0 6.0 
102.0 64.0 
103.0 89.0 
104.0 348.0 
105.0 427.0 
106.0 45.0 
108.0 11.0 
109.0 29.0 
111.0 12.0 
112.0 14.0 
113.0 27.0 
116.0 18.0 
118.0 20.0 
119.0 27.0 
121.0 27.0 
125.0 143.0 
126.0 70.0 
127.0 21.0 
130.0 15.0 
131.0 18.0 
132.0 841.0 
133.0 117.0 
134.0 17.0 
135.0 5.0 
136.0 43.0 
138.0 6.0 
140.0 5.0 
142.0 5.0 
144.0 5.0 
145.0 9.0 
146.0 18.0 
147.0 10.0 
149.0 124.0 
150.0 8.0 
155.0 8.0 
156.0 5.0 
157.0 22.0 
158.0 31.0 
159.0 5.0 
160.0 725.0 
161.0 104.0 
164.0 8.0 
166.0 5.0 
167.0 41.0 
171.0 19.0 
172.0 7.0 
176.0 5.0 
181.0 5.0 
193.0 8.0 
205.0 7.0 
222.0 17.0 
231.0 19.0 
249.0 9.0 
279.0 14.0 
281.0 13.0 
365.0 5.0 
370.0 10.0 
END IONS

BEGIN IONS
INCHIKEY=SBPBAQFWLVIOKP-UHFFFAOYSA-N
INCHI=InChI=1S/C9H11Cl3NO3PS/c1-3-14-17(18,15-4-2)16-9-7(11)5-6(10)8(12)13-9/h5H,3-4H2,1-2H3
SMILES=CCOP(=S)(OCC)OC1=NC(=C(C=C1Cl)Cl)Cl
INSTRUMENT_TYPE=ESI-ITFT
INSTRUMENT=LTQ Orbitap Velos (Thermofisher Scientific)
FORMULA=C9H11Cl3NO3PS
PARENT=349.93465
SPLASH=splash10-006t-0916000000-e5066adbf2b26421940a
NUM_PEAKS=32
COMPOUND_NAME=Chlorpyrifos
SPECTRUM_ID=MSBNK-MSSJ-MSJ00016
ADDUCT=[M+H]+
MS_LEVEL=MS2
PRECURSOR_MZ=349.93465
IONMODE=positive
NOMINAL_MASS=349
PARENT_MASS=348.92628
96.95085 7.0 
114.96142 553.0 
124.98212 20.0 
132.97193 2.0 
142.99266 37.0 
153.01348 105.0 
171.02398 407.0 
172.02731 2.0 
188.92947 1.0 
197.92748 999.0 
197.94416 1.0 
198.9308 6.0 
213.90458 8.0 
225.95878 10.0 
241.9359 1.0 
275.86044 11.0 
293.87101 362.0 
294.87464 2.0 
303.89174 17.0 
305.92517 1.0 
321.88522 2.0 
321.90224 699.0 
321.91889 2.0 
321.92797 1.0 
322.90593 7.0 
349.18336 2.0 
349.79067 2.0 
349.93349 623.0 
350.93711 8.0 
366.80088 8.0 
367.80119 58.0 
368.79739 5.0 
END IONS

BEGIN IONS
SYNON=[2-(Dimethylamino)-5,6-dimethylpyrimidin-4-yl] N,N-dimethylcarbamate
INCHIKEY=YFGYUFNIOHWBOB-UHFFFAOYSA-N
INCHI=InChI=1S/C11H18N4O2/c1-7-8(2)12-10(14(3)4)13-9(7)17-11(16)15(5)6/h1-6H3
SMILES=CN(C)C(=O)OC1=NC(=NC(C)=C1C)N(C)C
INSTRUMENT_TYPE=LC-ESI-ITFT
INSTRUMENT=LTQ Orbitrap XL Thermo Scientific
COLLISION_ENERGY=35 (nominal)
FORMULA=C11H18N4O2
PARENT=239.1503
SPLASH=splash10-001i-0910000000-0e6e639ffc0fd6828322
NUM_PEAKS=9
COMPOUND_NAME=Pirimicarb
SPECTRUM_ID=MSBNK-UFZ-UF403903
ADDUCT=[M+H]+
MS_LEVEL=MS2
PRECURSOR_MZ=239.1503
IONMODE=positive
NOMINAL_MASS=238
PARENT_MASS=238.1430
72.0443 65.0 
137.071 2.0 
150.1026 1.0 
166.0975 28.0 
167.1057 1.0 
182.1287 999.0 
194.0925 5.0 
195.1603 374.0 
239.1502 245.0 
END IONS

BEGIN IONS
SYNON=2-Diethoxyphosphinothioyloxy-5-methylpyrazolo[1,5-a]pyrimidine-6-carboxylate-ethyl
INCHIKEY=JOOMJVFZQRQWKR-UHFFFAOYSA-N
INCHI=InChI=1S/C14H20N3O5PS/c1-5-19-14(18)11-9-17-12(15-10(11)4)8-13(16-17)22-23(24,20-6-2)21-7-3/h8-9H,5-7H2,1-4H3
SMILES=CCOC(=O)C1=CN2N=C(OP(=S)(OCC)OCC)C=C2N=C1C
INSTRUMENT_TYPE=LC-ESI-ITFT
INSTRUMENT=LTQ Orbitrap XL Thermo Scientific
COLLISION_ENERGY=55 (nominal)
FORMULA=C14H20N3O5PS
PARENT=374.0934
SPLASH=splash10-0006-0930000000-a0dcec484416d7d55b06
NUM_PEAKS=36
COMPOUND_NAME=Pyrazophos
SPECTRUM_ID=MSBNK-UFZ-UF402001
ADDUCT=[M+H]+
MS_LEVEL=MS2
PRECURSOR_MZ=374.0934
IONMODE=positive
NOMINAL_MASS=373
PARENT_MASS=373.0861
80.9736 2.0 
96.9508 62.0 
98.984 2.0 
113.9535 78.0 
114.9613 93.0 
133.0637 2.0 
139.0501 1.0 
148.0507 16.0 
149.0342 1.0 
150.0665 2.0 
151.0506 2.0 
155.0475 1.0 
159.0429 9.0 
165.0118 4.0 
166.0613 16.0 
167.0454 1.0 
170.0162 1.0 
176.0456 233.0 
177.0296 9.0 
177.0534 105.0 
178.0607 2.0 
183.0224 66.0 
192.0228 20.0 
194.0561 999.0 
195.0592 7.0 
205.0847 60.0 
208.0178 28.0 
209.0382 7.0 
210.0333 83.0 
222.0874 393.0 
236.0491 21.0 
238.0646 45.0 
253.9786 12.0 
256.0125 7.0 
271.9893 28.0 
300.0206 10.0 
END IONS

BEGIN IONS
SYNON=2-dimethoxyphosphinothioylsulfanyl-N-methylacetamide
INCHIKEY=MCWXGJITAZMZEV-UHFFFAOYSA-N
INCHI=InChI=1S/C5H12NO3PS2/c1-6-5(7)4-12-10(11,8-2)9-3/h4H2,1-3H3,(H,6,7)
SMILES=CNC(=O)CSP(=S)(OC)OC
INSTRUMENT_TYPE=LC-ESI-ITFT
INSTRUMENT=LTQ Orbitrap XL Thermo Scientific
COLLISION_ENERGY=30 % (nominal)
FORMULA=C5H12NO3PS2
PARENT=230.0069
SPLASH=splash10-00dj-1900000000-0bb26542e65bb6029927
NUM_PEAKS=14
COMPOUND_NAME=Dimethoate
SPECTRUM_ID=MSBNK-UFZ-WANA001305070APH
ADDUCT=[M+H]+
MS_LEVEL=MS2
PRECURSOR_MZ=230.0069
IONMODE=positive
NOMINAL_MASS=229
PARENT_MASS=228.999621874
61.0104 30.0 
78.9942 10.0 
88.0215 587.0 
119.9937 18.0 
124.982 796.0 
140.9591 5.0 
142.9926 434.0 
156.9542 65.0 
157.0084 3.0 
158.9693 5.0 
170.9698 999.0 
197.9808 94.0 
198.9647 921.0 
230.0068 22.0 
END IONS

BEGIN IONS
SYNON=2-Dimethoxyphosphinothioylsulfanyl-N-methylacetamide
INCHIKEY=MCWXGJITAZMZEV-UHFFFAOYSA-N
INCHI=InChI=1S/C5H12NO3PS2/c1-6-5(7)4-12-10(11,8-2)9-3/h4H2,1-3H3,(H,6,7)
SMILES=CNC(=O)CSP(=S)(OC)OC
INSTRUMENT_TYPE=LC-ESI-ITFT
INSTRUMENT=LTQ Orbitrap XL Thermo Scientific
COLLISION_ENERGY=35 (nominal)
FORMULA=C5H12NO3PS2
PARENT=230.0069
SPLASH=splash10-0002-0900000000-adacd594ac8be754d393
NUM_PEAKS=6
COMPOUND_NAME=Dimethoate
SPECTRUM_ID=MSBNK-UFZ-UF400303
ADDUCT=[M+H]+
MS_LEVEL=MS2
PRECURSOR_MZ=230.0069
IONMODE=positive
NOMINAL_MASS=229
PARENT_MASS=228.9996
88.0214 11.0 
124.9817 10.0 
156.9539 1.0 
170.9697 70.0 
197.9806 9.0 
198.9646 999.0 
END IONS

BEGIN IONS
SYNON=naphthalen-1-yl N-methylcarbamate
INCHIKEY=CVXBEEMKQHEXEN-UHFFFAOYSA-N
INCHI=InChI=1S/C12H11NO2/c1-13-12(14)15-11-8-4-6-9-5-2-3-7-10(9)11/h2-8H,1H3,(H,13,14)
SMILES=CNC(=O)OC1=C2C=CC=CC2=CC=C1
INSTRUMENT_TYPE=LC-ESI-ITFT
INSTRUMENT=LTQ Orbitrap XL Thermo Scientific
COLLISION_ENERGY=90 % (nominal)
FORMULA=C12H11NO2
PARENT=202.0863
SPLASH=splash10-014i-0900000000-b0ac60189c87e12fde77
NUM_PEAKS=5
COMPOUND_NAME=Carbaryl
SPECTRUM_ID=MSBNK-UFZ-WANA226325AF82PH
ADDUCT=[M+H]+
MS_LEVEL=MS2
PRECURSOR_MZ=202.0863
IONMODE=positive
NOMINAL_MASS=201
PARENT_MASS=201.078978592
58.0289 59.0 
115.0548 999.0 
146.0236 94.0 
174.055 83.0 
202.086 58.0 
END IONS

BEGIN IONS
SYNON=ethyl 2-diethoxyphosphinothioyloxy-5-methylpyrazolo[1,5-a]pyrimidine-6-carboxylate
INCHIKEY=JOOMJVFZQRQWKR-UHFFFAOYSA-N
INCHI=InChI=1S/C14H20N3O5PS/c1-5-19-14(18)11-9-17-12(15-10(11)4)8-13(16-17)22-23(24,20-6-2)21-7-3/h8-9H,5-7H2,1-4H3
SMILES=CCOC(=O)C1=CN2N=C(OP(=S)(OCC)OCC)C=C2N=C1C
INSTRUMENT_TYPE=LC-ESI-ITFT
INSTRUMENT=LTQ Orbitrap XL Thermo Scientific
COLLISION_ENERGY=20 % (nominal)
FORMULA=C14H20N3O5PS
PARENT=374.0934
SPLASH=splash10-00di-0019000000-3a227c496e4c55adba8d
NUM_PEAKS=10
COMPOUND_NAME=Pyrazophos
SPECTRUM_ID=MSBNK-UFZ-WANA015303B085PH
ADDUCT=[M+H]+
MS_LEVEL=MS2
PRECURSOR_MZ=374.0934
IONMODE=positive
NOMINAL_MASS=373
PARENT_MASS=373.08612837
170.0165 1.0 
194.0558 2.0 
205.0843 4.0 
222.0873 176.0 
223.0905 8.0 
236.0485 4.0 
238.0644 35.0 
318.0312 4.0 
346.0621 77.0 
374.0932 999.0 
END IONS

BEGIN IONS
SYNON=[2-Chloro-1-(2,4-dichlorophenyl)ethenyl] diethyl phosphate
INCHIKEY=FSAVDKDHPDSCTO-UHFFFAOYSA-N
INCHI=InChI=1S/C12H14Cl3O4P/c1-3-17-20(16,18-4-2)19-12(8-13)10-6-5-9(14)7-11(10)15/h5-8H,3-4H2,1-2H3
SMILES=CCOP(=O)(OCC)OC(=CCl)C1=CC=C(Cl)C=C1Cl
INSTRUMENT_TYPE=LC-ESI-ITFT
INSTRUMENT=LTQ Orbitrap XL Thermo Scientific
COLLISION_ENERGY=35 (nominal)
FORMULA=C12H14Cl3O4P
PARENT=358.9768
SPLASH=splash10-0a4i-0902000000-b1bc4cfb24fd18dd830b
NUM_PEAKS=4
COMPOUND_NAME=Chlorfenvinphos
SPECTRUM_ID=MSBNK-UFZ-UF403803
ADDUCT=[M+H]+
MS_LEVEL=MS2
PRECURSOR_MZ=358.9768
IONMODE=positive
NOMINAL_MASS=358
PARENT_MASS=357.9695
98.9841 94.0 
127.0154 283.0 
155.0467 999.0 
330.9456 340.0 
END IONS

BEGIN IONS
SYNON=dimethoxy-(3-methyl-4-methylsulfanylphenoxy)-sulfanylidene-lambda5-phosphane
INCHIKEY=PNVJTZOFSHSLTO-UHFFFAOYSA-N
INCHI=InChI=1S/C10H15O3PS2/c1-8-7-9(5-6-10(8)16-4)13-14(15,11-2)12-3/h5-7H,1-4H3
SMILES=COP(=S)(OC)OC1=CC=C(SC)C(C)=C1
INSTRUMENT_TYPE=LC-ESI-ITFT
INSTRUMENT=LTQ Orbitrap XL Thermo Scientific
COLLISION_ENERGY=30 % (nominal)
FORMULA=C10H15O3PS2
PARENT=279.0273
SPLASH=splash10-001i-0090000000-874512dc9c403ca68882
NUM_PEAKS=6
COMPOUND_NAME=Fenthion
SPECTRUM_ID=MSBNK-UFZ-WANA086605070APH
ADDUCT=[M+H]+
MS_LEVEL=MS2
PRECURSOR_MZ=279.0273
IONMODE=positive
NOMINAL_MASS=278
PARENT_MASS=278.02002297
149.0237 7.0 
153.0376 53.0 
216.0015 53.0 
231.0249 999.0 
247.0019 23.0 
279.0283 198.0 
END IONS

BEGIN IONS
SYNON=(3,5-dimethyl-4-methylsulfanylphenyl) N-methylcarbamate
INCHIKEY=YFBPRJGDJKVWAH-UHFFFAOYSA-N
INCHI=InChI=1S/C11H15NO2S/c1-7-5-9(14-11(13)12-3)6-8(2)10(7)15-4/h5-6H,1-4H3,(H,12,13)
SMILES=CNC(=O)OC1=CC(C)=C(SC)C(C)=C1
INSTRUMENT_TYPE=LC-ESI-ITFT
INSTRUMENT=LTQ Orbitrap XL Thermo Scientific
COLLISION_ENERGY=20 % (nominal)
FORMULA=C11H15NO2S
PARENT=226.0896
SPLASH=splash10-014i-0900000000-71e4af0c72dcd6943daa
NUM_PEAKS=4
COMPOUND_NAME=Methiocarb
SPECTRUM_ID=MSBNK-UFZ-WANA048303B085PH
ADDUCT=[M+H]+
MS_LEVEL=MS2
PRECURSOR_MZ=226.0896
IONMODE=positive
NOMINAL_MASS=225
PARENT_MASS=225.08234972
93.0698 3.0 
121.0647 157.0 
122.0725 9.0 
169.0681 999.0 
END IONS

BEGIN IONS
SYNON=naphthalen-1-yl N-methylcarbamate
INCHIKEY=CVXBEEMKQHEXEN-UHFFFAOYSA-N
INCHI=InChI=1S/C12H11NO2/c1-13-12(14)15-11-8-4-6-9-5-2-3-7-10(9)11/h2-8H,1H3,(H,13,14)
SMILES=CNC(=O)OC1=C2C=CC=CC2=CC=C1
INSTRUMENT_TYPE=LC-ESI-ITFT
INSTRUMENT=LTQ Orbitrap XL Thermo Scientific
COLLISION_ENERGY=70 % (nominal)
FORMULA=C12H11NO2
PARENT=202.0863
SPLASH=splash10-014i-0920000000-806fa82b8a9f01077447
NUM_PEAKS=7
COMPOUND_NAME=Carbaryl
SPECTRUM_ID=MSBNK-UFZ-WANA2263213166PH
ADDUCT=[M+H]+
MS_LEVEL=MS2
PRECURSOR_MZ=202.0863
IONMODE=positive
NOMINAL_MASS=201
PARENT_MASS=201.078978592
58.0289 26.0 
91.0547 18.0 
117.0704 999.0 
127.0547 68.0 
146.0235 73.0 
174.055 161.0 
202.0863 306.0 
END IONS

BEGIN IONS
SYNON=[2-chloro-1-(2,4-dichlorophenyl)ethenyl] diethyl phosphate
INCHIKEY=FSAVDKDHPDSCTO-UHFFFAOYSA-N
INCHI=InChI=1S/C12H14Cl3O4P/c1-3-17-20(16,18-4-2)19-12(8-13)10-6-5-9(14)7-11(10)15/h5-8H,3-4H2,1-2H3
SMILES=CCOP(=O)(OCC)OC(=CCl)C1=C(Cl)C=C(Cl)C=C1
INSTRUMENT_TYPE=LC-ESI-ITFT
INSTRUMENT=LTQ Orbitrap XL Thermo Scientific
COLLISION_ENERGY=80 % (nominal)
FORMULA=C12H14Cl3O4P
PARENT=358.9768
SPLASH=splash10-014j-6900000000-6dcbbfdab5ed96d81979
NUM_PEAKS=8
COMPOUND_NAME=Chlorfenvinphos
SPECTRUM_ID=MSBNK-UFZ-WANA0270237762PH
ADDUCT=[M+H]+
MS_LEVEL=MS2
PRECURSOR_MZ=358.9768
IONMODE=positive
NOMINAL_MASS=358
PARENT_MASS=357.969528598
80.9739 6.0 
98.9846 849.0 
122.9998 7.0 
132.9845 42.0 
168.9614 84.0 
169.9692 999.0 
196.9677 20.0 
204.938 32.0 
END IONS

BEGIN IONS
SYNON=(3,5-Dimethyl-4-methylsulfanylphenyl) N-methylcarbamate
INCHIKEY=YFBPRJGDJKVWAH-UHFFFAOYSA-N
INCHI=InChI=1S/C11H15NO2S/c1-7-5-9(14-11(13)12-3)6-8(2)10(7)15-4/h5-6H,1-4H3,(H,12,13)
SMILES=CNC(=O)OC1=CC(C)=C(SC)C(C)=C1
INSTRUMENT_TYPE=LC-ESI-ITFT
INSTRUMENT=LTQ Orbitrap XL Thermo Scientific
COLLISION_ENERGY=55 (nominal)
FORMULA=C11H15NO2S
PARENT=226.0896
SPLASH=splash10-014i-0900000000-c826f835fc5906dfbe30
NUM_PEAKS=4
COMPOUND_NAME=Methiocarb
SPECTRUM_ID=MSBNK-UFZ-UF405704
ADDUCT=[M+H]+
MS_LEVEL=MS2
PRECURSOR_MZ=226.0896
IONMODE=positive
NOMINAL_MASS=225
PARENT_MASS=225.0823
91.054 8.0 
121.0648 24.0 
148.0757 16.0 
169.0681 999.0 
END IONS

BEGIN IONS
SYNON=diethoxy-(6-methyl-2-propan-2-ylpyrimidin-4-yl)oxy-sulfanylidene-lambda5-phosphane
INCHIKEY=FHIVAFMUCKRCQO-UHFFFAOYSA-N
INCHI=InChI=1S/C12H21N2O3PS/c1-6-15-18(19,16-7-2)17-11-8-10(5)13-12(14-11)9(3)4/h8-9H,6-7H2,1-5H3
SMILES=CCOP(=S)(OCC)OC1=CC(C)=NC(=N1)C(C)C
INSTRUMENT_TYPE=LC-ESI-ITFT
INSTRUMENT=LTQ Orbitrap XL Thermo Scientific
COLLISION_ENERGY=40 % (nominal)
FORMULA=C12H21N2O3PS
PARENT=305.1083
SPLASH=splash10-0gb9-0900000000-6984911eceab0dfdc829
NUM_PEAKS=12
COMPOUND_NAME=Diazinon
SPECTRUM_ID=MSBNK-UFZ-WANA003311C9CFPH
ADDUCT=[M+H]+
MS_LEVEL=MS2
PRECURSOR_MZ=305.1083
IONMODE=positive
NOMINAL_MASS=304
PARENT_MASS=304.101050162
96.9507 91.0 
109.0047 7.0 
114.9613 82.0 
124.982 21.0 
153.1022 578.0 
169.0794 999.0 
181.1335 34.0 
197.1104 5.0 
206.0938 4.0 
231.0346 3.0 
249.0461 4.0 
305.1084 97.0 
END IONS

BEGIN IONS
SYNON=[2-chloro-1-(2,4-dichlorophenyl)ethenyl] diethyl phosphate
INCHIKEY=FSAVDKDHPDSCTO-UHFFFAOYSA-N
INCHI=InChI=1S/C12H14Cl3O4P/c1-3-17-20(16,18-4-2)19-12(8-13)10-6-5-9(14)7-11(10)15/h5-8H,3-4H2,1-2H3
SMILES=CCOP(=O)(OCC)OC(=CCl)C1=C(Cl)C=C(Cl)C=C1
INSTRUMENT_TYPE=LC-ESI-ITFT
INSTRUMENT=LTQ Orbitrap XL Thermo Scientific
COLLISION_ENERGY=30 % (nominal)
FORMULA=C12H14Cl3O4P
PARENT=358.9768
SPLASH=splash10-0pdj-4940000000-1ff1bb56c2610b02bd4e
NUM_PEAKS=4
COMPOUND_NAME=Chlorfenvinphos
SPECTRUM_ID=MSBNK-UFZ-WANA027005070APH
ADDUCT=[M+H]+
MS_LEVEL=MS2
PRECURSOR_MZ=358.9768
IONMODE=positive
NOMINAL_MASS=358
PARENT_MASS=357.969528598
98.9847 877.0 
127.0161 949.0 
155.0475 999.0 
204.9382 961.0 
END IONS

BEGIN IONS
SYNON=ethyl 2-diethoxyphosphinothioyloxy-5-methylpyrazolo[1,5-a]pyrimidine-6-carboxylate
INCHIKEY=JOOMJVFZQRQWKR-UHFFFAOYSA-N
INCHI=InChI=1S/C14H20N3O5PS/c1-5-19-14(18)11-9-17-12(15-10(11)4)8-13(16-17)22-23(24,20-6-2)21-7-3/h8-9H,5-7H2,1-4H3
SMILES=CCOC(=O)C1=CN2N=C(OP(=S)(OCC)OCC)C=C2N=C1C
INSTRUMENT_TYPE=LC-ESI-ITFT
INSTRUMENT=LTQ Orbitrap XL Thermo Scientific
COLLISION_ENERGY=80 % (nominal)
FORMULA=C14H20N3O5PS
PARENT=374.0934
SPLASH=splash10-004m-1900000000-9747700d536bbd50397c
NUM_PEAKS=61
COMPOUND_NAME=Pyrazophos
SPECTRUM_ID=MSBNK-UFZ-WANA0153237762PH
ADDUCT=[M+H]+
MS_LEVEL=MS2
PRECURSOR_MZ=374.0934
IONMODE=positive
NOMINAL_MASS=373
PARENT_MASS=373.08612837
64.9786 72.0 
66.0337 9.0 
68.013 5.0 
68.0494 3.0 
78.0336 8.0 
80.0128 4.0 
80.9734 4.0 
82.0289 7.0 
92.0496 12.0 
93.0101 14.0 
93.0448 30.0 
94.0288 28.0 
95.0606 11.0 
96.9508 225.0 
97.9589 5.0 
98.9663 3.0 
98.9843 15.0 
99.0553 10.0 
105.0449 12.0 
106.0288 8.0 
110.0237 5.0 
110.0352 3.0 
110.9663 4.0 
112.0393 6.0 
113.9536 113.0 
114.9614 288.0 
120.0557 65.0 
121.0396 27.0 
123.0559 3.0 
124.0506 4.0 
131.0477 8.0 
133.0635 11.0 
134.0474 7.0 
137.0475 5.0 
139.0503 78.0 
142.9933 5.0 
148.0507 357.0 
149.0347 47.0 
149.0575 9.0 
150.0663 23.0 
159.0428 68.0 
160.0504 5.0 
164.0279 4.0 
166.0613 161.0 
167.0646 3.0 
176.0457 869.0 
177.0296 88.0 
177.0534 262.0 
183.0224 158.0 
192.023 11.0 
194.0561 999.0 
195.0591 24.0 
199.0166 7.0 
205.0849 15.0 
208.0173 12.0 
210.0332 17.0 
211.0537 7.0 
222.0876 14.0 
240.0171 13.0 
253.979 4.0 
256.0116 8.0 
END IONS

BEGIN IONS
SYNON=naphthalen-1-yl N-methylcarbamate
INCHIKEY=CVXBEEMKQHEXEN-UHFFFAOYSA-N
INCHI=InChI=1S/C12H11NO2/c1-13-12(14)15-11-8-4-6-9-5-2-3-7-10(9)11/h2-8H,1H3,(H,13,14)
SMILES=CNC(=O)OC1=C2C=CC=CC2=CC=C1
INSTRUMENT_TYPE=LC-ESI-ITFT
INSTRUMENT=LTQ Orbitrap XL Thermo Scientific
COLLISION_ENERGY=80 % (nominal)
FORMULA=C12H11NO2
PARENT=202.0863
SPLASH=splash10-014i-0900000000-5db5651d3cb44b2cd960
NUM_PEAKS=8
COMPOUND_NAME=Carbaryl
SPECTRUM_ID=MSBNK-UFZ-WANA2263237762PH
ADDUCT=[M+H]+
MS_LEVEL=MS2
PRECURSOR_MZ=202.0863
IONMODE=positive
NOMINAL_MASS=201
PARENT_MASS=201.078978592
58.0288 20.0 
91.0546 70.0 
115.0548 169.0 
117.0704 999.0 
127.0548 116.0 
146.0234 53.0 
174.055 87.0 
202.0866 77.0 
END IONS

BEGIN IONS
SYNON=[2-chloro-1-(2,4-dichlorophenyl)ethenyl] diethyl phosphate
INCHIKEY=FSAVDKDHPDSCTO-UHFFFAOYSA-N
INCHI=InChI=1S/C12H14Cl3O4P/c1-3-17-20(16,18-4-2)19-12(8-13)10-6-5-9(14)7-11(10)15/h5-8H,3-4H2,1-2H3
SMILES=CCOP(=O)(OCC)OC(=CCl)C1=C(Cl)C=C(Cl)C=C1
INSTRUMENT_TYPE=LC-ESI-ITFT
INSTRUMENT=LTQ Orbitrap XL Thermo Scientific
COLLISION_ENERGY=20 % (nominal)
FORMULA=C12H14Cl3O4P
PARENT=358.9768
SPLASH=splash10-0a6r-1910000000-f1bd84f53c92a3a30e66
NUM_PEAKS=5
COMPOUND_NAME=Chlorfenvinphos
SPECTRUM_ID=MSBNK-UFZ-WANA027003B085PH
ADDUCT=[M+H]+
MS_LEVEL=MS2
PRECURSOR_MZ=358.9768
IONMODE=positive
NOMINAL_MASS=358
PARENT_MASS=357.969528598
98.9846 317.0 
127.016 582.0 
155.0475 999.0 
204.9382 256.0 
358.9785 36.0 
END IONS

BEGIN IONS
SYNON=4-Dimethoxyphosphinothioyloxy-N,N-diethyl-6-methylpyrimidin-2-amine
INCHIKEY=QHOQHJPRIBSPCY-UHFFFAOYSA-N
INCHI=InChI=1S/C11H20N3O3PS/c1-6-14(7-2)11-12-9(3)8-10(13-11)17-18(19,15-4)16-5/h8H,6-7H2,1-5H3
SMILES=CCN(CC)C1=NC(C)=CC(OP(=S)(OC)OC)=N1
INSTRUMENT_TYPE=LC-ESI-ITFT
INSTRUMENT=LTQ Orbitrap XL Thermo Scientific
COLLISION_ENERGY=55 (nominal)
FORMULA=C11H20N3O3PS
PARENT=306.1036
SPLASH=splash10-0200-0790000000-ebbfc4fad780ce10a6d5
NUM_PEAKS=30
COMPOUND_NAME=Pirimiphos-methyl
SPECTRUM_ID=MSBNK-UFZ-UF402804
ADDUCT=[M+H]+
MS_LEVEL=MS2
PRECURSOR_MZ=306.1036
IONMODE=positive
NOMINAL_MASS=305
PARENT_MASS=305.0963
95.0603 55.0 
108.0556 58.0 
109.076 22.0 
123.0917 12.0 
124.9821 13.0 
136.0869 41.0 
142.9926 5.0 
151.027 11.0 
153.1023 73.0 
154.1056 102.0 
164.1182 836.0 
168.1133 16.0 
169.0794 133.0 
170.0827 218.0 
171.0243 4.0 
179.058 25.0 
196.1445 100.0 
207.0894 133.0 
208.0195 7.0 
214.1104 6.0 
220.0275 17.0 
233.0144 83.0 
246.0462 133.0 
247.1204 21.0 
250.0414 53.0 
258.0998 10.0 
264.0555 4.0 
274.0773 608.0 
276.0566 9.0 
278.0722 999.0 
END IONS

BEGIN IONS
SYNON=[2-chloro-1-(2,4-dichlorophenyl)ethenyl] diethyl phosphate
INCHIKEY=FSAVDKDHPDSCTO-UHFFFAOYSA-N
INCHI=InChI=1S/C12H14Cl3O4P/c1-3-17-20(16,18-4-2)19-12(8-13)10-6-5-9(14)7-11(10)15/h5-8H,3-4H2,1-2H3
SMILES=CCOP(=O)(OCC)OC(=CCl)C1=C(Cl)C=C(Cl)C=C1
INSTRUMENT_TYPE=LC-ESI-ITFT
INSTRUMENT=LTQ Orbitrap XL Thermo Scientific
COLLISION_ENERGY=10 % (nominal)
FORMULA=C12H14Cl3O4P
PARENT=358.9768
SPLASH=splash10-0a4i-1906000000-74282bfe677e4f9465cd
NUM_PEAKS=4
COMPOUND_NAME=Chlorfenvinphos
SPECTRUM_ID=MSBNK-UFZ-WANA027001AD6CPH
ADDUCT=[M+H]+
MS_LEVEL=MS2
PRECURSOR_MZ=358.9768
IONMODE=positive
NOMINAL_MASS=358
PARENT_MASS=357.969528598
98.9844 233.0 
127.0157 481.0 
155.0471 856.0 
358.9773 999.0 
END IONS

BEGIN IONS
SYNON=diethoxy-(6-methyl-2-propan-2-ylpyrimidin-4-yl)oxy-sulfanylidene-lambda5-phosphane
INCHIKEY=FHIVAFMUCKRCQO-UHFFFAOYSA-N
INCHI=InChI=1S/C12H21N2O3PS/c1-6-15-18(19,16-7-2)17-11-8-10(5)13-12(14-11)9(3)4/h8-9H,6-7H2,1-5H3
SMILES=CCOP(=S)(OCC)OC1=CC(C)=NC(=N1)C(C)C
INSTRUMENT_TYPE=LC-ESI-ITFT
INSTRUMENT=LTQ Orbitrap XL Thermo Scientific
COLLISION_ENERGY=80 % (nominal)
FORMULA=C12H21N2O3PS
PARENT=305.1083
SPLASH=splash10-0uxs-4900000000-b2c18bee577e15317ee3
NUM_PEAKS=24
COMPOUND_NAME=Diazinon
SPECTRUM_ID=MSBNK-UFZ-WANA0033237762PH
ADDUCT=[M+H]+
MS_LEVEL=MS2
PRECURSOR_MZ=305.1083
IONMODE=positive
NOMINAL_MASS=304
PARENT_MASS=304.101050162
58.9948 15.0 
64.9784 4.0 
67.0416 17.0 
70.065 300.0 
78.9401 4.0 
80.9736 35.0 
82.995 8.0 
84.0444 503.0 
87.0917 4.0 
90.9943 11.0 
96.9508 740.0 
100.0215 936.0 
109.0049 100.0 
110.9664 14.0 
114.9613 533.0 
124.9819 6.0 
128.0525 4.0 
128.9768 8.0 
138.0791 5.0 
153.1023 473.0 
154.0559 39.0 
167.064 7.0 
168.0714 4.0 
169.0795 999.0 
END IONS

BEGIN IONS
SYNON=dimethoxy-(3-methyl-4-methylsulfanylphenoxy)-sulfanylidene-lambda5-phosphane
INCHIKEY=PNVJTZOFSHSLTO-UHFFFAOYSA-N
INCHI=InChI=1S/C10H15O3PS2/c1-8-7-9(5-6-10(8)16-4)13-14(15,11-2)12-3/h5-7H,1-4H3
SMILES=COP(=S)(OC)OC1=CC=C(SC)C(C)=C1
INSTRUMENT_TYPE=LC-ESI-ITFT
INSTRUMENT=LTQ Orbitrap XL Thermo Scientific
COLLISION_ENERGY=50 % (nominal)
FORMULA=C10H15O3PS2
PARENT=279.0273
SPLASH=splash10-0gc0-0590000000-d86519288377b8332424
NUM_PEAKS=16
COMPOUND_NAME=Fenthion
SPECTRUM_ID=MSBNK-UFZ-WANA086613D9F1PH
ADDUCT=[M+H]+
MS_LEVEL=MS2
PRECURSOR_MZ=279.0273
IONMODE=positive
NOMINAL_MASS=278
PARENT_MASS=278.02002297
58.995 15.0 
91.0546 27.0 
93.0702 20.0 
103.0546 25.0 
122.0188 17.0 
124.9825 97.0 
137.0425 125.0 
142.9933 85.0 
153.0375 669.0 
185.9903 30.0 
198.9981 14.0 
200.0063 86.0 
216.0014 999.0 
217.0089 21.0 
231.0249 584.0 
247.0019 15.0 
END IONS

BEGIN IONS
INCHIKEY=RIZMRRKBZQXFOY-UHFFFAOYSA-N
INCHI=InChI=1S/C9H22O4P2S4/c1-5-10-14(16,11-6-2)18-9-19-15(17,12-7-3)13-8-4/h5-9H2,1-4H3
SMILES=CCOP(=S)(OCC)SCSP(=S)(OCC)OCC
INSTRUMENT_TYPE=LC-ESI-ITFT
INSTRUMENT=LTQ Orbitrap XL Thermo Scientific
COLLISION_ENERGY=55 (nominal)
FORMULA=C9H22O4P2S4
PARENT=384.9949
SPLASH=splash10-01ow-5900000000-51d281c1df6e870f62ef
NUM_PEAKS=7
COMPOUND_NAME=Ethion
SPECTRUM_ID=MSBNK-UFZ-UF402701
ADDUCT=[M+H]+
MS_LEVEL=MS2
PRECURSOR_MZ=384.9949
IONMODE=positive
NOMINAL_MASS=384
PARENT_MASS=383.9876
75.0262 77.0 
96.9507 999.0 
114.9613 737.0 
124.9816 57.0 
142.9385 796.0 
188.091 83.0 
198.9077 109.0 
END IONS

BEGIN IONS
SYNON=2-dimethoxyphosphinothioylsulfanyl-N-methylacetamide
INCHIKEY=MCWXGJITAZMZEV-UHFFFAOYSA-N
INCHI=InChI=1S/C5H12NO3PS2/c1-6-5(7)4-12-10(11,8-2)9-3/h4H2,1-3H3,(H,6,7)
SMILES=CNC(=O)CSP(=S)(OC)OC
INSTRUMENT_TYPE=LC-ESI-ITFT
INSTRUMENT=LTQ Orbitrap XL Thermo Scientific
COLLISION_ENERGY=20 % (nominal)
FORMULA=C5H12NO3PS2
PARENT=230.0069
SPLASH=splash10-006t-1900000000-bdd1b183f14807fcd502
NUM_PEAKS=13
COMPOUND_NAME=Dimethoate
SPECTRUM_ID=MSBNK-UFZ-WANA001303B085PH
ADDUCT=[M+H]+
MS_LEVEL=MS2
PRECURSOR_MZ=230.0069
IONMODE=positive
NOMINAL_MASS=229
PARENT_MASS=228.999621874
61.0104 9.0 
78.9941 2.0 
88.0215 294.0 
119.9934 2.0 
124.982 198.0 
142.9926 99.0 
156.9541 13.0 
157.0082 2.0 
158.9703 1.0 
170.9698 477.0 
197.9807 55.0 
198.9647 999.0 
230.0068 132.0 
END IONS

BEGIN IONS
SYNON=dimethoxy-(3-methyl-4-methylsulfanylphenoxy)-sulfanylidene-lambda5-phosphane
INCHIKEY=PNVJTZOFSHSLTO-UHFFFAOYSA-N
INCHI=InChI=1S/C10H15O3PS2/c1-8-7-9(5-6-10(8)16-4)13-14(15,11-2)12-3/h5-7H,1-4H3
SMILES=COP(=S)(OC)OC1=CC=C(SC)C(C)=C1
INSTRUMENT_TYPE=LC-ESI-ITFT
INSTRUMENT=LTQ Orbitrap XL Thermo Scientific
COLLISION_ENERGY=40 % (nominal)
FORMULA=C10H15O3PS2
PARENT=279.0273
SPLASH=splash10-001i-0390000000-615c39c7347134d55496
NUM_PEAKS=17
COMPOUND_NAME=Fenthion
SPECTRUM_ID=MSBNK-UFZ-WANA086611C9CFPH
ADDUCT=[M+H]+
MS_LEVEL=MS2
PRECURSOR_MZ=279.0273
IONMODE=positive
NOMINAL_MASS=278
PARENT_MASS=278.02002297
91.0546 3.0 
93.0703 4.0 
97.0111 11.0 
122.0189 2.0 
124.9826 55.0 
137.0425 60.0 
138.0504 14.0 
142.9932 45.0 
149.0239 9.0 
153.0375 313.0 
168.9879 23.0 
198.9986 11.0 
200.0064 37.0 
216.0013 385.0 
217.0092 11.0 
231.0248 999.0 
247.002 28.0 
END IONS

BEGIN IONS
SYNON=[2-chloro-1-(2,4-dichlorophenyl)ethenyl] diethyl phosphate
INCHIKEY=FSAVDKDHPDSCTO-UHFFFAOYSA-N
INCHI=InChI=1S/C12H14Cl3O4P/c1-3-17-20(16,18-4-2)19-12(8-13)10-6-5-9(14)7-11(10)15/h5-8H,3-4H2,1-2H3
SMILES=CCOP(=O)(OCC)OC(=CCl)C1=C(Cl)C=C(Cl)C=C1
INSTRUMENT_TYPE=LC-ESI-ITFT
INSTRUMENT=LTQ Orbitrap XL Thermo Scientific
COLLISION_ENERGY=70 % (nominal)
FORMULA=C12H14Cl3O4P
PARENT=358.9768
SPLASH=splash10-00kb-8910000000-508702b827217ceb221b
NUM_PEAKS=6
COMPOUND_NAME=Chlorfenvinphos
SPECTRUM_ID=MSBNK-UFZ-WANA0270213166PH
ADDUCT=[M+H]+
MS_LEVEL=MS2
PRECURSOR_MZ=358.9768
IONMODE=positive
NOMINAL_MASS=358
PARENT_MASS=357.969528598
98.9846 999.0 
127.0162 13.0 
168.9614 63.0 
169.9691 987.0 
196.9681 15.0 
204.938 120.0 
END IONS

BEGIN IONS
SYNON=diethoxy-(6-methyl-2-propan-2-ylpyrimidin-4-yl)oxy-sulfanylidene-lambda5-phosphane
INCHIKEY=FHIVAFMUCKRCQO-UHFFFAOYSA-N
INCHI=InChI=1S/C12H21N2O3PS/c1-6-15-18(19,16-7-2)17-11-8-10(5)13-12(14-11)9(3)4/h8-9H,6-7H2,1-5H3
SMILES=CCOP(=S)(OCC)OC1=CC(C)=NC(=N1)C(C)C
INSTRUMENT_TYPE=LC-ESI-ITFT
INSTRUMENT=LTQ Orbitrap XL Thermo Scientific
COLLISION_ENERGY=90 % (nominal)
FORMULA=C12H21N2O3PS
PARENT=305.1083
SPLASH=splash10-0udj-6900000000-e590068b3a68facb0021
NUM_PEAKS=22
COMPOUND_NAME=Diazinon
SPECTRUM_ID=MSBNK-UFZ-WANA003325AF82PH
ADDUCT=[M+H]+
MS_LEVEL=MS2
PRECURSOR_MZ=305.1083
IONMODE=positive
NOMINAL_MASS=304
PARENT_MASS=304.101050162
58.9948 22.0 
64.9785 13.0 
67.0415 32.0 
70.065 385.0 
78.9401 15.0 
80.9736 46.0 
82.995 15.0 
84.0444 528.0 
87.0918 4.0 
90.9943 14.0 
96.9508 765.0 
100.0216 999.0 
109.0049 97.0 
110.9665 18.0 
114.9613 558.0 
128.053 6.0 
128.977 8.0 
138.0787 4.0 
153.1023 214.0 
154.0559 39.0 
168.0713 5.0 
169.0795 485.0 
END IONS

BEGIN IONS
SYNON=ethyl 2-diethoxyphosphinothioyloxy-5-methylpyrazolo[1,5-a]pyrimidine-6-carboxylate
INCHIKEY=JOOMJVFZQRQWKR-UHFFFAOYSA-N
INCHI=InChI=1S/C14H20N3O5PS/c1-5-19-14(18)11-9-17-12(15-10(11)4)8-13(16-17)22-23(24,20-6-2)21-7-3/h8-9H,5-7H2,1-4H3
SMILES=CCOC(=O)C1=CN2N=C(OP(=S)(OCC)OCC)C=C2N=C1C
INSTRUMENT_TYPE=LC-ESI-ITFT
INSTRUMENT=LTQ Orbitrap XL Thermo Scientific
COLLISION_ENERGY=70 % (nominal)
FORMULA=C14H20N3O5PS
PARENT=374.0934
SPLASH=splash10-002f-0900000000-202a882c6693227a9940
NUM_PEAKS=53
COMPOUND_NAME=Pyrazophos
SPECTRUM_ID=MSBNK-UFZ-WANA0153213166PH
ADDUCT=[M+H]+
MS_LEVEL=MS2
PRECURSOR_MZ=374.0934
IONMODE=positive
NOMINAL_MASS=373
PARENT_MASS=373.08612837
64.9786 46.0 
66.0337 2.0 
92.0494 3.0 
93.01 17.0 
93.0448 4.0 
94.0288 4.0 
96.9508 117.0 
97.9586 1.0 
98.9664 2.0 
98.9844 4.0 
99.0553 2.0 
109.0399 2.0 
110.0235 1.0 
110.9664 2.0 
113.9536 90.0 
114.9614 157.0 
120.0557 9.0 
121.0397 3.0 
122.0722 2.0 
123.0552 1.0 
131.0479 1.0 
133.0399 2.0 
133.0635 2.0 
134.0475 1.0 
139.0503 20.0 
142.9929 7.0 
148.0507 101.0 
149.0347 16.0 
149.0571 2.0 
150.0662 9.0 
159.0429 30.0 
164.0281 2.0 
165.0119 12.0 
166.0613 65.0 
167.0643 2.0 
175.0379 2.0 
176.0457 500.0 
177.0296 43.0 
177.0534 173.0 
181.0068 39.0 
183.0224 112.0 
192.023 14.0 
194.0561 999.0 
195.0591 23.0 
205.0848 34.0 
208.0176 15.0 
209.0377 5.0 
210.0332 31.0 
222.0874 71.0 
236.0495 2.0 
238.0644 3.0 
253.9787 9.0 
271.9889 10.0 
END IONS

BEGIN IONS
SYNON=dimethoxy-(3-methyl-4-methylsulfanylphenoxy)-sulfanylidene-lambda5-phosphane
INCHIKEY=PNVJTZOFSHSLTO-UHFFFAOYSA-N
INCHI=InChI=1S/C10H15O3PS2/c1-8-7-9(5-6-10(8)16-4)13-14(15,11-2)12-3/h5-7H,1-4H3
SMILES=COP(=S)(OC)OC1=CC=C(SC)C(C)=C1
INSTRUMENT_TYPE=LC-ESI-ITFT
INSTRUMENT=LTQ Orbitrap XL Thermo Scientific
COLLISION_ENERGY=60 % (nominal)
FORMULA=C10H15O3PS2
PARENT=279.0273
SPLASH=splash10-0gb9-1970000000-017fa9f7692a65f8204f
NUM_PEAKS=15
COMPOUND_NAME=Fenthion
SPECTRUM_ID=MSBNK-UFZ-WANA0866155BE0PH
ADDUCT=[M+H]+
MS_LEVEL=MS2
PRECURSOR_MZ=279.0273
IONMODE=positive
NOMINAL_MASS=278
PARENT_MASS=278.02002297
58.995 22.0 
91.0546 61.0 
97.0111 93.0 
103.0547 46.0 
122.0187 36.0 
124.9826 120.0 
137.0426 126.0 
138.0503 35.0 
142.993 95.0 
153.0375 751.0 
168.9876 37.0 
185.9907 114.0 
198.9983 32.0 
216.0013 999.0 
231.0248 129.0 
END IONS

BEGIN IONS
SYNON=(3,5-Dimethyl-4-methylsulfanylphenyl) N-methylcarbamate
INCHIKEY=YFBPRJGDJKVWAH-UHFFFAOYSA-N
INCHI=InChI=1S/C11H15NO2S/c1-7-5-9(14-11(13)12-3)6-8(2)10(7)15-4/h5-6H,1-4H3,(H,12,13)
SMILES=CNC(=O)OC1=CC(C)=C(SC)C(C)=C1
INSTRUMENT_TYPE=LC-ESI-ITFT
INSTRUMENT=LTQ Orbitrap XL Thermo Scientific
COLLISION_ENERGY=80 (nominal)
FORMULA=C11H15NO2S
PARENT=226.0896
SPLASH=splash10-00dl-6900000000-7aa3b43100afab8265c7
NUM_PEAKS=6
COMPOUND_NAME=Methiocarb
SPECTRUM_ID=MSBNK-UFZ-UF405702
ADDUCT=[M+H]+
MS_LEVEL=MS2
PRECURSOR_MZ=226.0896
IONMODE=positive
NOMINAL_MASS=225
PARENT_MASS=225.0823
77.0385 295.0 
91.0542 596.0 
93.0698 332.0 
121.0647 999.0 
122.0725 693.0 
154.0449 73.0 
END IONS

BEGIN IONS
SYNON=diethoxyphosphinothioylsulfanylmethylsulfanyl-diethoxy-sulfanylidene-lambda5-phosphane
INCHIKEY=RIZMRRKBZQXFOY-UHFFFAOYSA-N
INCHI=InChI=1S/C9H22O4P2S4/c1-5-10-14(16,11-6-2)18-9-19-15(17,12-7-3)13-8-4/h5-9H2,1-4H3
SMILES=CCOP(=S)(OCC)SCSP(=S)(OCC)OCC
INSTRUMENT_TYPE=LC-ESI-ITFT
INSTRUMENT=LTQ Orbitrap XL Thermo Scientific
COLLISION_ENERGY=30 % (nominal)
FORMULA=C9H22O4P2S4
PARENT=384.9949
SPLASH=splash10-006y-1910000000-a2cc4cfef05482e7d428
NUM_PEAKS=5
COMPOUND_NAME=Ethion
SPECTRUM_ID=MSBNK-UFZ-WANA018005070APH
ADDUCT=[M+H]+
MS_LEVEL=MS2
PRECURSOR_MZ=384.9949
IONMODE=positive
NOMINAL_MASS=384
PARENT_MASS=383.987616444
96.9512 316.0 
142.9391 999.0 
170.9706 803.0 
199.002 266.0 
215.0333 272.0 
END IONS

BEGIN IONS
SYNON=2-Diethoxyphosphinothioyloxy-5-methylpyrazolo[1,5-a]pyrimidine-6-carboxylate-ethyl
INCHIKEY=JOOMJVFZQRQWKR-UHFFFAOYSA-N
INCHI=InChI=1S/C14H20N3O5PS/c1-5-19-14(18)11-9-17-12(15-10(11)4)8-13(16-17)22-23(24,20-6-2)21-7-3/h8-9H,5-7H2,1-4H3
SMILES=CCOC(=O)C1=CN2N=C(OP(=S)(OCC)OCC)C=C2N=C1C
INSTRUMENT_TYPE=LC-ESI-ITFT
INSTRUMENT=LTQ Orbitrap XL Thermo Scientific
COLLISION_ENERGY=35 (nominal)
FORMULA=C14H20N3O5PS
PARENT=374.0934
SPLASH=splash10-0072-0096000000-3634e228f0b64b587fc0
NUM_PEAKS=23
COMPOUND_NAME=Pyrazophos
SPECTRUM_ID=MSBNK-UFZ-UF402003
ADDUCT=[M+H]+
MS_LEVEL=MS2
PRECURSOR_MZ=374.0934
IONMODE=positive
NOMINAL_MASS=373
PARENT_MASS=373.0861
165.0116 1.0 
170.0166 3.0 
176.0458 12.0 
192.0231 16.0 
194.0564 70.0 
205.0851 17.0 
208.0184 2.0 
209.0382 1.0 
210.0336 44.0 
211.054 64.0 
222.0876 766.0 
223.091 7.0 
238.0648 690.0 
239.0683 5.0 
254.0585 1.0 
264.0811 1.0 
266.0964 26.0 
271.9896 1.0 
289.9998 2.0 
301.0057 1.0 
318.0316 123.0 
328.0525 47.0 
346.0627 999.0 
END IONS

BEGIN IONS
INCHIKEY=RIZMRRKBZQXFOY-UHFFFAOYSA-N
INCHI=InChI=1S/C9H22O4P2S4/c1-5-10-14(16,11-6-2)18-9-19-15(17,12-7-3)13-8-4/h5-9H2,1-4H3
SMILES=CCOP(=S)(OCC)SCSP(=S)(OCC)OCC
INSTRUMENT_TYPE=LC-ESI-ITFT
INSTRUMENT=LTQ Orbitrap XL Thermo Scientific
COLLISION_ENERGY=35 (nominal)
FORMULA=C9H22O4P2S4
PARENT=384.9949
SPLASH=splash10-014j-0691000000-abb20671de495da52a58
NUM_PEAKS=13
COMPOUND_NAME=Ethion
SPECTRUM_ID=MSBNK-UFZ-UF402703
ADDUCT=[M+H]+
MS_LEVEL=MS2
PRECURSOR_MZ=384.9949
IONMODE=positive
NOMINAL_MASS=384
PARENT_MASS=383.9876
96.9508 24.0 
124.9819 31.0 
142.9384 93.0 
153.0133 50.0 
170.9699 104.0 
188.0912 12.0 
199.0012 651.0 
215.0324 999.0 
230.9736 15.0 
261.0202 159.0 
294.945 73.0 
322.9761 169.0 
339.0077 44.0 
END IONS

BEGIN IONS
SYNON=[2-Chloro-1-(2,4-dichlorophenyl)ethenyl] diethyl phosphate
INCHIKEY=FSAVDKDHPDSCTO-UHFFFAOYSA-N
INCHI=InChI=1S/C12H14Cl3O4P/c1-3-17-20(16,18-4-2)19-12(8-13)10-6-5-9(14)7-11(10)15/h5-8H,3-4H2,1-2H3
SMILES=CCOP(=O)(OCC)OC(=CCl)C1=CC=C(Cl)C=C1Cl
INSTRUMENT_TYPE=LC-ESI-ITFT
INSTRUMENT=LTQ Orbitrap XL Thermo Scientific
COLLISION_ENERGY=55 (nominal)
FORMULA=C12H14Cl3O4P
PARENT=358.9768
SPLASH=splash10-0002-9030000000-264cdf6842d160bda612
NUM_PEAKS=4
COMPOUND_NAME=Chlorfenvinphos
SPECTRUM_ID=MSBNK-UFZ-UF403801
ADDUCT=[M+H]+
MS_LEVEL=MS2
PRECURSOR_MZ=358.9768
IONMODE=positive
NOMINAL_MASS=358
PARENT_MASS=357.9695
98.984 999.0 
127.0151 45.0 
198.9031 40.0 
204.9373 425.0 
END IONS

BEGIN IONS
SYNON=[2-(dimethylamino)-5,6-dimethylpyrimidin-4-yl] N,N-dimethylcarbamate
INCHIKEY=YFGYUFNIOHWBOB-UHFFFAOYSA-N
INCHI=InChI=1S/C11H18N4O2/c1-7-8(2)12-10(14(3)4)13-9(7)17-11(16)15(5)6/h1-6H3
SMILES=CN(C)C(=O)OC1=C(C)C(C)=NC(=N1)N(C)C
INSTRUMENT_TYPE=LC-ESI-ITFT
INSTRUMENT=LTQ Orbitrap XL Thermo Scientific
COLLISION_ENERGY=50 % (nominal)
FORMULA=C11H18N4O2
PARENT=239.1503
SPLASH=splash10-00e9-9600000000-614b5b19736e81e3ed2c
NUM_PEAKS=15
COMPOUND_NAME=Pirimicarb
SPECTRUM_ID=MSBNK-UFZ-WANA027113D9F1PH
ADDUCT=[M+H]+
MS_LEVEL=MS2
PRECURSOR_MZ=239.1503
IONMODE=positive
NOMINAL_MASS=238
PARENT_MASS=238.142975816
72.0442 999.0 
83.0239 1.0 
85.076 38.0 
109.076 7.0 
137.0709 38.0 
138.0788 3.0 
150.1025 22.0 
152.0816 1.0 
166.0982 2.0 
167.1052 11.0 
168.1137 1.0 
180.1133 1.0 
182.1288 601.0 
195.1603 21.0 
239.1501 24.0 
END IONS

BEGIN IONS
SYNON=dimethoxy-(3-methyl-4-methylsulfanylphenoxy)-sulfanylidene-lambda5-phosphane
INCHIKEY=PNVJTZOFSHSLTO-UHFFFAOYSA-N
INCHI=InChI=1S/C10H15O3PS2/c1-8-7-9(5-6-10(8)16-4)13-14(15,11-2)12-3/h5-7H,1-4H3
SMILES=COP(=S)(OC)OC1=CC=C(SC)C(C)=C1
INSTRUMENT_TYPE=LC-ESI-ITFT
INSTRUMENT=LTQ Orbitrap XL Thermo Scientific
COLLISION_ENERGY=20 % (nominal)
FORMULA=C10H15O3PS2
PARENT=279.0273
SPLASH=splash10-0059-0090000000-7ac50f903f778363b405
NUM_PEAKS=4
COMPOUND_NAME=Fenthion
SPECTRUM_ID=MSBNK-UFZ-WANA086603B085PH
ADDUCT=[M+H]+
MS_LEVEL=MS2
PRECURSOR_MZ=279.0273
IONMODE=positive
NOMINAL_MASS=278
PARENT_MASS=278.02002297
149.0237 11.0 
153.0374 7.0 
231.0248 871.0 
279.0283 999.0 
END IONS

BEGIN IONS
SYNON=2-Diethoxyphosphinothioyloxy-5-methylpyrazolo[1,5-a]pyrimidine-6-carboxylate-ethyl
INCHIKEY=JOOMJVFZQRQWKR-UHFFFAOYSA-N
INCHI=InChI=1S/C14H20N3O5PS/c1-5-19-14(18)11-9-17-12(15-10(11)4)8-13(16-17)22-23(24,20-6-2)21-7-3/h8-9H,5-7H2,1-4H3
SMILES=CCOC(=O)C1=CN2N=C(OP(=S)(OCC)OCC)C=C2N=C1C
INSTRUMENT_TYPE=LC-ESI-ITFT
INSTRUMENT=LTQ Orbitrap XL Thermo Scientific
COLLISION_ENERGY=55 (nominal)
FORMULA=C14H20N3O5PS
PARENT=374.0934
SPLASH=splash10-0072-0096000000-a654777f759274128d12
NUM_PEAKS=27
COMPOUND_NAME=Pyrazophos
SPECTRUM_ID=MSBNK-UFZ-UF402004
ADDUCT=[M+H]+
MS_LEVEL=MS2
PRECURSOR_MZ=374.0934
IONMODE=positive
NOMINAL_MASS=373
PARENT_MASS=373.0861
148.0502 1.0 
170.0162 3.0 
176.0455 9.0 
177.0533 4.0 
183.0224 14.0 
192.0229 13.0 
194.0563 56.0 
205.085 15.0 
208.0182 1.0 
209.0384 1.0 
210.0335 34.0 
211.0538 59.0 
222.0875 735.0 
223.0909 8.0 
236.0493 33.0 
238.0647 663.0 
239.0684 9.0 
254.0601 1.0 
264.0796 1.0 
266.0963 24.0 
271.9895 2.0 
290.0003 2.0 
300.0208 59.0 
301.0051 1.0 
318.0314 118.0 
328.0522 43.0 
346.0625 999.0 
END IONS

BEGIN IONS
SYNON=[2-(Dimethylamino)-5,6-dimethylpyrimidin-4-yl] N,N-dimethylcarbamate
INCHIKEY=YFGYUFNIOHWBOB-UHFFFAOYSA-N
INCHI=InChI=1S/C11H18N4O2/c1-7-8(2)12-10(14(3)4)13-9(7)17-11(16)15(5)6/h1-6H3
SMILES=CN(C)C(=O)OC1=NC(=NC(C)=C1C)N(C)C
INSTRUMENT_TYPE=LC-ESI-ITFT
INSTRUMENT=LTQ Orbitrap XL Thermo Scientific
COLLISION_ENERGY=55 (nominal)
FORMULA=C11H18N4O2
PARENT=239.1503
SPLASH=splash10-00e9-9800000000-9b77cc69afe3d69c1472
NUM_PEAKS=16
COMPOUND_NAME=Pirimicarb
SPECTRUM_ID=MSBNK-UFZ-UF403901
ADDUCT=[M+H]+
MS_LEVEL=MS2
PRECURSOR_MZ=239.1503
IONMODE=positive
NOMINAL_MASS=238
PARENT_MASS=238.1430
72.0442 999.0 
83.0239 13.0 
85.0759 100.0 
109.0759 45.0 
124.0627 1.0 
137.0709 92.0 
138.0786 23.0 
150.1025 63.0 
152.0818 7.0 
166.0975 3.0 
167.1052 34.0 
168.1124 2.0 
180.1134 4.0 
182.1286 779.0 
195.1604 29.0 
239.1501 9.0 
END IONS

BEGIN IONS
SYNON=diethoxyphosphinothioylsulfanylmethylsulfanyl-diethoxy-sulfanylidene-lambda5-phosphane
INCHIKEY=RIZMRRKBZQXFOY-UHFFFAOYSA-N
INCHI=InChI=1S/C9H22O4P2S4/c1-5-10-14(16,11-6-2)18-9-19-15(17,12-7-3)13-8-4/h5-9H2,1-4H3
SMILES=CCOP(=S)(OCC)SCSP(=S)(OCC)OCC
INSTRUMENT_TYPE=LC-ESI-ITFT
INSTRUMENT=LTQ Orbitrap XL Thermo Scientific
COLLISION_ENERGY=20 % (nominal)
FORMULA=C9H22O4P2S4
PARENT=384.9949
SPLASH=splash10-00r2-0920000000-0c3e70dc56634c0bdae6
NUM_PEAKS=8
COMPOUND_NAME=Ethion
SPECTRUM_ID=MSBNK-UFZ-WANA018003B085PH
ADDUCT=[M+H]+
MS_LEVEL=MS2
PRECURSOR_MZ=384.9949
IONMODE=positive
NOMINAL_MASS=384
PARENT_MASS=383.987616444
75.0265 103.0 
124.9825 201.0 
142.9391 397.0 
153.0141 222.0 
170.9705 688.0 
199.0017 999.0 
215.0331 588.0 
230.973 73.0 
END IONS

BEGIN IONS
SYNON=[2-(dimethylamino)-5,6-dimethylpyrimidin-4-yl] N,N-dimethylcarbamate
INCHIKEY=YFGYUFNIOHWBOB-UHFFFAOYSA-N
INCHI=InChI=1S/C11H18N4O2/c1-7-8(2)12-10(14(3)4)13-9(7)17-11(16)15(5)6/h1-6H3
SMILES=CN(C)C(=O)OC1=C(C)C(C)=NC(=N1)N(C)C
INSTRUMENT_TYPE=LC-ESI-ITFT
INSTRUMENT=LTQ Orbitrap XL Thermo Scientific
COLLISION_ENERGY=60 % (nominal)
FORMULA=C11H18N4O2
PARENT=239.1503
SPLASH=splash10-00di-9400000000-1fe731d4b9a4a9ce3eca
NUM_PEAKS=13
COMPOUND_NAME=Pirimicarb
SPECTRUM_ID=MSBNK-UFZ-WANA0271155BE0PH
ADDUCT=[M+H]+
MS_LEVEL=MS2
PRECURSOR_MZ=239.1503
IONMODE=positive
NOMINAL_MASS=238
PARENT_MASS=238.142975816
72.0442 999.0 
83.024 6.0 
85.076 72.0 
109.076 28.0 
137.0709 62.0 
138.0786 11.0 
150.1025 36.0 
152.082 5.0 
167.1052 22.0 
180.1125 2.0 
182.1287 328.0 
195.1603 10.0 
239.1506 1.0 
END IONS

BEGIN IONS
SYNON=2,2-dichloroethenyl dimethyl phosphate
INCHIKEY=OEBRKCOSUFCWJD-UHFFFAOYSA-N
INCHI=InChI=1S/C4H7Cl2O4P/c1-8-11(7,9-2)10-3-4(5)6/h3H,1-2H3
SMILES=COP(=O)(OC)OC=C(Cl)Cl
INSTRUMENT_TYPE=LC-ESI-ITFT
INSTRUMENT=LTQ Orbitrap XL Thermo Scientific
COLLISION_ENERGY=20 % (nominal)
FORMULA=C4H7Cl2O4P
PARENT=220.9532
SPLASH=splash10-00di-0290000000-8e889e97f3439d7fde54
NUM_PEAKS=4
COMPOUND_NAME=Dichlorvos
SPECTRUM_ID=MSBNK-UFZ-WANA000503B085PH
ADDUCT=[M+H]+
MS_LEVEL=MS2
PRECURSOR_MZ=220.9532
IONMODE=positive
NOMINAL_MASS=220
PARENT_MASS=219.945900694
109.0055 27.0 
127.016 164.0 
144.9822 38.0 
220.954 999.0 
END IONS

BEGIN IONS
SYNON=2-Dimethoxyphosphinothioylsulfanyl-N-methylacetamide
INCHIKEY=MCWXGJITAZMZEV-UHFFFAOYSA-N
INCHI=InChI=1S/C5H12NO3PS2/c1-6-5(7)4-12-10(11,8-2)9-3/h4H2,1-3H3,(H,6,7)
SMILES=CNC(=O)CSP(=S)(OC)OC
INSTRUMENT_TYPE=LC-ESI-ITFT
INSTRUMENT=LTQ Orbitrap XL Thermo Scientific
COLLISION_ENERGY=80 (nominal)
FORMULA=C5H12NO3PS2
PARENT=230.0069
SPLASH=splash10-00dl-2900000000-9c36234a485bc6baec04
NUM_PEAKS=9
COMPOUND_NAME=Dimethoate
SPECTRUM_ID=MSBNK-UFZ-UF400302
ADDUCT=[M+H]+
MS_LEVEL=MS2
PRECURSOR_MZ=230.0069
IONMODE=positive
NOMINAL_MASS=229
PARENT_MASS=228.9996
78.9943 362.0 
88.0215 51.0 
93.0099 140.0 
110.9662 42.0 
123.9979 55.0 
124.9819 999.0 
128.9768 32.0 
142.9925 490.0 
156.9541 69.0 
END IONS

BEGIN IONS
SYNON=4-Dimethoxyphosphinothioyloxy-N,N-diethyl-6-methylpyrimidin-2-amine
INCHIKEY=QHOQHJPRIBSPCY-UHFFFAOYSA-N
INCHI=InChI=1S/C11H20N3O3PS/c1-6-14(7-2)11-12-9(3)8-10(13-11)17-18(19,15-4)16-5/h8H,6-7H2,1-5H3
SMILES=CCN(CC)C1=NC(C)=CC(OP(=S)(OC)OC)=N1
INSTRUMENT_TYPE=LC-ESI-ITFT
INSTRUMENT=LTQ Orbitrap XL Thermo Scientific
COLLISION_ENERGY=35 (nominal)
FORMULA=C11H20N3O3PS
PARENT=306.1036
SPLASH=splash10-0200-0790000000-c8c4b6b702f15e767de8
NUM_PEAKS=32
COMPOUND_NAME=Pirimiphos-methyl
SPECTRUM_ID=MSBNK-UFZ-UF402803
ADDUCT=[M+H]+
MS_LEVEL=MS2
PRECURSOR_MZ=306.1036
IONMODE=positive
NOMINAL_MASS=305
PARENT_MASS=305.0963
95.0603 54.0 
108.0555 58.0 
109.0047 3.0 
109.0759 24.0 
123.0916 13.0 
124.982 13.0 
136.0869 41.0 
151.0267 15.0 
153.1022 77.0 
154.0996 10.0 
154.1056 121.0 
164.1182 898.0 
168.1132 16.0 
169.0794 127.0 
170.0826 215.0 
171.0244 6.0 
179.0581 24.0 
196.1445 100.0 
207.0893 140.0 
208.0191 10.0 
214.111 5.0 
220.0272 19.0 
233.0144 84.0 
246.0461 138.0 
247.1204 18.0 
250.0411 60.0 
258.1002 13.0 
264.0574 3.0 
274.0773 613.0 
276.0569 6.0 
278.0721 999.0 
306.1035 10.0 
END IONS

BEGIN IONS
SYNON=[2-(dimethylamino)-5,6-dimethylpyrimidin-4-yl] N,N-dimethylcarbamate
INCHIKEY=YFGYUFNIOHWBOB-UHFFFAOYSA-N
INCHI=InChI=1S/C11H18N4O2/c1-7-8(2)12-10(14(3)4)13-9(7)17-11(16)15(5)6/h1-6H3
SMILES=CN(C)C(=O)OC1=C(C)C(C)=NC(=N1)N(C)C
INSTRUMENT_TYPE=LC-ESI-ITFT
INSTRUMENT=LTQ Orbitrap XL Thermo Scientific
COLLISION_ENERGY=20 % (nominal)
FORMULA=C11H18N4O2
PARENT=239.1503
SPLASH=splash10-000i-0190000000-4179a078b569112bbf57
NUM_PEAKS=4
COMPOUND_NAME=Pirimicarb
SPECTRUM_ID=MSBNK-UFZ-WANA027103B085PH
ADDUCT=[M+H]+
MS_LEVEL=MS2
PRECURSOR_MZ=239.1503
IONMODE=positive
NOMINAL_MASS=238
PARENT_MASS=238.142975816
72.0441 83.0 
182.1286 102.0 
195.1602 17.0 
239.1499 999.0 
END IONS

BEGIN IONS
SYNON=[2-(Dimethylamino)-5,6-dimethylpyrimidin-4-yl] N,N-dimethylcarbamate
INCHIKEY=YFGYUFNIOHWBOB-UHFFFAOYSA-N
INCHI=InChI=1S/C11H18N4O2/c1-7-8(2)12-10(14(3)4)13-9(7)17-11(16)15(5)6/h1-6H3
SMILES=CN(C)C(=O)OC1=NC(=NC(C)=C1C)N(C)C
INSTRUMENT_TYPE=LC-ESI-ITFT
INSTRUMENT=LTQ Orbitrap XL Thermo Scientific
COLLISION_ENERGY=80 (nominal)
FORMULA=C11H18N4O2
PARENT=239.1503
SPLASH=splash10-00di-9300000000-ca7325c0aa759606cc81
NUM_PEAKS=15
COMPOUND_NAME=Pirimicarb
SPECTRUM_ID=MSBNK-UFZ-UF403902
ADDUCT=[M+H]+
MS_LEVEL=MS2
PRECURSOR_MZ=239.1503
IONMODE=positive
NOMINAL_MASS=238
PARENT_MASS=238.1430
72.0442 999.0 
83.0239 38.0 
85.0759 149.0 
109.0758 154.0 
124.0629 19.0 
137.0709 57.0 
138.0787 65.0 
150.1026 32.0 
152.0818 49.0 
166.0978 2.0 
167.1052 21.0 
168.1125 2.0 
180.1131 3.0 
182.1287 69.0 
195.1609 2.0 
END IONS

BEGIN IONS
SYNON=(3,5-dimethyl-4-methylsulfanylphenyl) N-methylcarbamate
INCHIKEY=YFBPRJGDJKVWAH-UHFFFAOYSA-N
INCHI=InChI=1S/C11H15NO2S/c1-7-5-9(14-11(13)12-3)6-8(2)10(7)15-4/h5-6H,1-4H3,(H,12,13)
SMILES=CNC(=O)OC1=CC(C)=C(SC)C(C)=C1
INSTRUMENT_TYPE=LC-ESI-ITFT
INSTRUMENT=LTQ Orbitrap XL Thermo Scientific
COLLISION_ENERGY=40 % (nominal)
FORMULA=C11H15NO2S
PARENT=226.0896
SPLASH=splash10-00xr-0900000000-34e2d829e8748fbc45f3
NUM_PEAKS=8
COMPOUND_NAME=Methiocarb
SPECTRUM_ID=MSBNK-UFZ-WANA048311C9CFPH
ADDUCT=[M+H]+
MS_LEVEL=MS2
PRECURSOR_MZ=226.0896
IONMODE=positive
NOMINAL_MASS=225
PARENT_MASS=225.08234972
77.0385 7.0 
91.0542 18.0 
93.0698 54.0 
121.0647 999.0 
122.0725 189.0 
123.0802 10.0 
153.0367 9.0 
169.0681 709.0 
END IONS

BEGIN IONS
SYNON=2,2-dichloroethenyl dimethyl phosphate
INCHIKEY=OEBRKCOSUFCWJD-UHFFFAOYSA-N
INCHI=InChI=1S/C4H7Cl2O4P/c1-8-11(7,9-2)10-3-4(5)6/h3H,1-2H3
SMILES=COP(=O)(OC)OC=C(Cl)Cl
INSTRUMENT_TYPE=LC-ESI-ITFT
INSTRUMENT=LTQ Orbitrap XL Thermo Scientific
COLLISION_ENERGY=30 % (nominal)
FORMULA=C4H7Cl2O4P
PARENT=220.9532
SPLASH=splash10-00fr-0970000000-b227d8e8ce7cf3025b8b
NUM_PEAKS=6
COMPOUND_NAME=Dichlorvos
SPECTRUM_ID=MSBNK-UFZ-WANA000505070APH
ADDUCT=[M+H]+
MS_LEVEL=MS2
PRECURSOR_MZ=220.9532
IONMODE=positive
NOMINAL_MASS=220
PARENT_MASS=219.945900694
76.9791 4.0 
78.9945 10.0 
109.0053 165.0 
127.0159 973.0 
144.9821 124.0 
220.9539 999.0 
END IONS

BEGIN IONS
SYNON=2-Diethoxyphosphinothioyloxy-5-methylpyrazolo[1,5-a]pyrimidine-6-carboxylate-ethyl
INCHIKEY=JOOMJVFZQRQWKR-UHFFFAOYSA-N
INCHI=InChI=1S/C14H20N3O5PS/c1-5-19-14(18)11-9-17-12(15-10(11)4)8-13(16-17)22-23(24,20-6-2)21-7-3/h8-9H,5-7H2,1-4H3
SMILES=CCOC(=O)C1=CN2N=C(OP(=S)(OCC)OCC)C=C2N=C1C
INSTRUMENT_TYPE=LC-ESI-ITFT
INSTRUMENT=LTQ Orbitrap XL Thermo Scientific
COLLISION_ENERGY=80 (nominal)
FORMULA=C14H20N3O5PS
PARENT=374.0934
SPLASH=splash10-004m-0900000000-35e2fab0d4ba5eec1b9b
NUM_PEAKS=31
COMPOUND_NAME=Pyrazophos
SPECTRUM_ID=MSBNK-UFZ-UF402002
ADDUCT=[M+H]+
MS_LEVEL=MS2
PRECURSOR_MZ=374.0934
IONMODE=positive
NOMINAL_MASS=373
PARENT_MASS=373.0861
80.9735 9.0 
96.9508 235.0 
98.9843 20.0 
113.9536 119.0 
114.9614 331.0 
133.0636 9.0 
139.0503 132.0 
148.0506 534.0 
149.0347 63.0 
150.0663 25.0 
151.0505 3.0 
155.0461 4.0 
159.0428 91.0 
166.0613 224.0 
167.0455 5.0 
176.0456 977.0 
177.0296 105.0 
177.0533 293.0 
178.0606 16.0 
183.0224 162.0 
192.0227 12.0 
194.0561 999.0 
195.0593 27.0 
205.0847 18.0 
208.0177 10.0 
210.0334 17.0 
211.0539 5.0 
222.0873 13.0 
253.9789 10.0 
256.0121 8.0 
271.9895 4.0 
END IONS

BEGIN IONS
SYNON=diethoxy-(6-methyl-2-propan-2-ylpyrimidin-4-yl)oxy-sulfanylidene-lambda5-phosphane
INCHIKEY=FHIVAFMUCKRCQO-UHFFFAOYSA-N
INCHI=InChI=1S/C12H21N2O3PS/c1-6-15-18(19,16-7-2)17-11-8-10(5)13-12(14-11)9(3)4/h8-9H,6-7H2,1-5H3
SMILES=CCOP(=S)(OCC)OC1=CC(C)=NC(=N1)C(C)C
INSTRUMENT_TYPE=LC-ESI-ITFT
INSTRUMENT=LTQ Orbitrap XL Thermo Scientific
COLLISION_ENERGY=50 % (nominal)
FORMULA=C12H21N2O3PS
PARENT=305.1083
SPLASH=splash10-0gb9-1900000000-10b80106ad719a0190e5
NUM_PEAKS=21
COMPOUND_NAME=Diazinon
SPECTRUM_ID=MSBNK-UFZ-WANA003313D9F1PH
ADDUCT=[M+H]+
MS_LEVEL=MS2
PRECURSOR_MZ=305.1083
IONMODE=positive
NOMINAL_MASS=304
PARENT_MASS=304.101050162
70.065 3.0 
80.9737 1.0 
84.0444 17.0 
96.9508 179.0 
98.0965 3.0 
100.0215 18.0 
109.0049 23.0 
110.9664 3.0 
114.9613 135.0 
124.9821 23.0 
128.9773 1.0 
142.9927 3.0 
153.1022 589.0 
167.0641 2.0 
169.0794 999.0 
181.1336 15.0 
197.1109 5.0 
206.0945 1.0 
231.0346 3.0 
249.0457 1.0 
305.1079 8.0 
END IONS

BEGIN IONS
SYNON=Diethoxy-(6-methyl-2-propan-2-ylpyrimidin-4-yl)oxy-sulfanylidene-{5}-phosphane
INCHIKEY=FHIVAFMUCKRCQO-UHFFFAOYSA-N
INCHI=InChI=1S/C12H21N2O3PS/c1-6-15-18(19,16-7-2)17-11-8-10(5)13-12(14-11)9(3)4/h8-9H,6-7H2,1-5H3
SMILES=CCOP(=S)(OCC)OC1=NC(=NC(C)=C1)C(C)C
INSTRUMENT_TYPE=LC-ESI-ITFT
INSTRUMENT=LTQ Orbitrap XL Thermo Scientific
COLLISION_ENERGY=55 (nominal)
FORMULA=C12H21N2O3PS
PARENT=305.1083
SPLASH=splash10-0gb9-1900000000-fde2fd32fffda1ea9300
NUM_PEAKS=10
COMPOUND_NAME=Diazinon
SPECTRUM_ID=MSBNK-UFZ-UF400601
ADDUCT=[M+H]+
MS_LEVEL=MS2
PRECURSOR_MZ=305.1083
IONMODE=positive
NOMINAL_MASS=304
PARENT_MASS=304.1011
84.0444 44.0 
96.9507 219.0 
98.9841 10.0 
100.0214 68.0 
114.9613 163.0 
153.1021 524.0 
169.0794 999.0 
188.0781 7.0 
188.0974 7.0 
188.1155 5.0 
END IONS

BEGIN IONS
SYNON=[2-(dimethylamino)-5,6-dimethylpyrimidin-4-yl] N,N-dimethylcarbamate
INCHIKEY=YFGYUFNIOHWBOB-UHFFFAOYSA-N
INCHI=InChI=1S/C11H18N4O2/c1-7-8(2)12-10(14(3)4)13-9(7)17-11(16)15(5)6/h1-6H3
SMILES=CN(C)C(=O)OC1=C(C)C(C)=NC(=N1)N(C)C
INSTRUMENT_TYPE=LC-ESI-ITFT
INSTRUMENT=LTQ Orbitrap XL Thermo Scientific
COLLISION_ENERGY=30 % (nominal)
FORMULA=C11H18N4O2
PARENT=239.1503
SPLASH=splash10-0080-6790000000-d83f0f0aadf7a13c9b21
NUM_PEAKS=5
COMPOUND_NAME=Pirimicarb
SPECTRUM_ID=MSBNK-UFZ-WANA027105070APH
ADDUCT=[M+H]+
MS_LEVEL=MS2
PRECURSOR_MZ=239.1503
IONMODE=positive
NOMINAL_MASS=238
PARENT_MASS=238.142975816
72.0442 703.0 
166.0976 4.0 
182.1287 753.0 
195.1603 59.0 
239.1501 999.0 
END IONS

BEGIN IONS
SYNON=2,2-Dichloroethenyl dimethyl phosphate
INCHIKEY=OEBRKCOSUFCWJD-UHFFFAOYSA-N
INCHI=InChI=1S/C4H7Cl2O4P/c1-8-11(7,9-2)10-3-4(5)6/h3H,1-2H3
SMILES=COP(=O)(OC)OC=C(Cl)Cl
INSTRUMENT_TYPE=LC-ESI-ITFT
INSTRUMENT=LTQ Orbitrap XL Thermo Scientific
COLLISION_ENERGY=35 (nominal)
FORMULA=C4H7Cl2O4P
PARENT=220.9532
SPLASH=splash10-0a4l-0900000000-ca0ee2a0d7d29061a4c4
NUM_PEAKS=7
COMPOUND_NAME=Dichlorvos
SPECTRUM_ID=MSBNK-UFZ-UF400103
ADDUCT=[M+H]+
MS_LEVEL=MS2
PRECURSOR_MZ=220.9532
IONMODE=positive
NOMINAL_MASS=220
PARENT_MASS=219.9459
76.9789 5.0 
78.9943 26.0 
109.0048 999.0 
127.0154 473.0 
144.9815 977.0 
190.9424 4.0 
220.9531 59.0 
END IONS

BEGIN IONS
SYNON=diethoxy-(6-methyl-2-propan-2-ylpyrimidin-4-yl)oxy-sulfanylidene-lambda5-phosphane
INCHIKEY=FHIVAFMUCKRCQO-UHFFFAOYSA-N
INCHI=InChI=1S/C12H21N2O3PS/c1-6-15-18(19,16-7-2)17-11-8-10(5)13-12(14-11)9(3)4/h8-9H,6-7H2,1-5H3
SMILES=CCOP(=S)(OCC)OC1=CC(C)=NC(=N1)C(C)C
INSTRUMENT_TYPE=LC-ESI-ITFT
INSTRUMENT=LTQ Orbitrap XL Thermo Scientific
COLLISION_ENERGY=60 % (nominal)
FORMULA=C12H21N2O3PS
PARENT=305.1083
SPLASH=splash10-0gb9-1900000000-447274a27843c6eff64b
NUM_PEAKS=20
COMPOUND_NAME=Diazinon
SPECTRUM_ID=MSBNK-UFZ-WANA0033155BE0PH
ADDUCT=[M+H]+
MS_LEVEL=MS2
PRECURSOR_MZ=305.1083
IONMODE=positive
NOMINAL_MASS=304
PARENT_MASS=304.101050162
70.065 25.0 
80.9737 4.0 
84.0444 81.0 
96.9508 276.0 
98.0964 5.0 
100.0216 108.0 
109.005 43.0 
110.9665 5.0 
114.9614 202.0 
124.9822 16.0 
128.9771 2.0 
142.9929 1.0 
152.0532 1.0 
153.1024 562.0 
154.0561 3.0 
167.0642 4.0 
169.0795 999.0 
181.1339 5.0 
197.1105 3.0 
231.0351 3.0 
END IONS

BEGIN IONS
SYNON=2-dimethoxyphosphinothioylsulfanyl-N-methylacetamide
INCHIKEY=MCWXGJITAZMZEV-UHFFFAOYSA-N
INCHI=InChI=1S/C5H12NO3PS2/c1-6-5(7)4-12-10(11,8-2)9-3/h4H2,1-3H3,(H,6,7)
SMILES=CNC(=O)CSP(=S)(OC)OC
INSTRUMENT_TYPE=LC-ESI-ITFT
INSTRUMENT=LTQ Orbitrap XL Thermo Scientific
COLLISION_ENERGY=10 % (nominal)
FORMULA=C5H12NO3PS2
PARENT=230.0069
SPLASH=splash10-000t-0930000000-beeded5c9e0dc9f4aa0a
NUM_PEAKS=8
COMPOUND_NAME=Dimethoate
SPECTRUM_ID=MSBNK-UFZ-WANA001301AD6CPH
ADDUCT=[M+H]+
MS_LEVEL=MS2
PRECURSOR_MZ=230.0069
IONMODE=positive
NOMINAL_MASS=229
PARENT_MASS=228.999621874
88.0215 119.0 
124.982 43.0 
142.9927 13.0 
156.954 7.0 
170.9698 277.0 
197.9808 23.0 
198.9646 999.0 
230.0067 573.0 
END IONS

BEGIN IONS
SYNON=(3,5-Dimethyl-4-methylsulfanylphenyl) N-methylcarbamate
INCHIKEY=YFBPRJGDJKVWAH-UHFFFAOYSA-N
INCHI=InChI=1S/C11H15NO2S/c1-7-5-9(14-11(13)12-3)6-8(2)10(7)15-4/h5-6H,1-4H3,(H,12,13)
SMILES=CNC(=O)OC1=CC(C)=C(SC)C(C)=C1
INSTRUMENT_TYPE=LC-ESI-ITFT
INSTRUMENT=LTQ Orbitrap XL Thermo Scientific
COLLISION_ENERGY=55 (nominal)
FORMULA=C11H15NO2S
PARENT=226.0896
SPLASH=splash10-00di-1900000000-4c82adbc8ab4b22f9b4a
NUM_PEAKS=7
COMPOUND_NAME=Methiocarb
SPECTRUM_ID=MSBNK-UFZ-UF405701
ADDUCT=[M+H]+
MS_LEVEL=MS2
PRECURSOR_MZ=226.0896
IONMODE=positive
NOMINAL_MASS=225
PARENT_MASS=225.0823
77.0387 19.0 
91.0542 151.0 
93.0698 100.0 
121.0646 999.0 
122.0725 315.0 
154.0441 22.0 
169.068 62.0 
END IONS

BEGIN IONS
SYNON=[2-(Dimethylamino)-5,6-dimethylpyrimidin-4-yl] N,N-dimethylcarbamate
INCHIKEY=YFGYUFNIOHWBOB-UHFFFAOYSA-N
INCHI=InChI=1S/C11H18N4O2/c1-7-8(2)12-10(14(3)4)13-9(7)17-11(16)15(5)6/h1-6H3
SMILES=CN(C)C(=O)OC1=NC(=NC(C)=C1C)N(C)C
INSTRUMENT_TYPE=LC-ESI-ITFT
INSTRUMENT=LTQ Orbitrap XL Thermo Scientific
COLLISION_ENERGY=55 (nominal)
FORMULA=C11H18N4O2
PARENT=239.1503
SPLASH=splash10-001i-0900000000-cbc33cec7486230151bb
NUM_PEAKS=9
COMPOUND_NAME=Pirimicarb
SPECTRUM_ID=MSBNK-UFZ-UF403904
ADDUCT=[M+H]+
MS_LEVEL=MS2
PRECURSOR_MZ=239.1503
IONMODE=positive
NOMINAL_MASS=238
PARENT_MASS=238.1430
72.0443 62.0 
137.071 2.0 
150.1025 2.0 
166.0975 27.0 
167.1049 1.0 
182.1287 999.0 
194.0924 6.0 
195.1603 343.0 
239.1506 1.0 
END IONS

BEGIN IONS
SYNON=Diethoxy-(6-methyl-2-propan-2-ylpyrimidin-4-yl)oxy-sulfanylidene-{5}-phosphane
INCHIKEY=FHIVAFMUCKRCQO-UHFFFAOYSA-N
INCHI=InChI=1S/C12H21N2O3PS/c1-6-15-18(19,16-7-2)17-11-8-10(5)13-12(14-11)9(3)4/h8-9H,6-7H2,1-5H3
SMILES=CCOP(=S)(OCC)OC1=NC(=NC(C)=C1)C(C)C
INSTRUMENT_TYPE=LC-ESI-ITFT
INSTRUMENT=LTQ Orbitrap XL Thermo Scientific
COLLISION_ENERGY=80 (nominal)
FORMULA=C12H21N2O3PS
PARENT=305.1083
SPLASH=splash10-0uxs-3900000000-45cba0af187739d41594
NUM_PEAKS=9
COMPOUND_NAME=Diazinon
SPECTRUM_ID=MSBNK-UFZ-UF400602
ADDUCT=[M+H]+
MS_LEVEL=MS2
PRECURSOR_MZ=305.1083
IONMODE=positive
NOMINAL_MASS=304
PARENT_MASS=304.1011
84.0443 344.0 
96.9507 681.0 
98.984 125.0 
100.0215 999.0 
114.9613 528.0 
153.1019 245.0 
169.0794 770.0 
188.0982 148.0 
188.1163 150.0 
END IONS

BEGIN IONS
SYNON=2,2-dichloroethenyl dimethyl phosphate
INCHIKEY=OEBRKCOSUFCWJD-UHFFFAOYSA-N
INCHI=InChI=1S/C4H7Cl2O4P/c1-8-11(7,9-2)10-3-4(5)6/h3H,1-2H3
SMILES=COP(=O)(OC)OC=C(Cl)Cl
INSTRUMENT_TYPE=LC-ESI-ITFT
INSTRUMENT=LTQ Orbitrap XL Thermo Scientific
COLLISION_ENERGY=10 % (nominal)
FORMULA=C4H7Cl2O4P
PARENT=220.9532
SPLASH=splash10-00di-0090000000-796793fe611ffae6e614
NUM_PEAKS=4
COMPOUND_NAME=Dichlorvos
SPECTRUM_ID=MSBNK-UFZ-WANA000501AD6CPH
ADDUCT=[M+H]+
MS_LEVEL=MS2
PRECURSOR_MZ=220.9532
IONMODE=positive
NOMINAL_MASS=220
PARENT_MASS=219.945900694
109.0053 10.0 
127.0162 16.0 
144.9824 6.0 
220.954 999.0 
END IONS

BEGIN IONS
SYNON=dimethoxy-(3-methyl-4-methylsulfanylphenoxy)-sulfanylidene-lambda5-phosphane
INCHIKEY=PNVJTZOFSHSLTO-UHFFFAOYSA-N
INCHI=InChI=1S/C10H15O3PS2/c1-8-7-9(5-6-10(8)16-4)13-14(15,11-2)12-3/h5-7H,1-4H3
SMILES=COP(=S)(OC)OC1=CC=C(SC)C(C)=C1
INSTRUMENT_TYPE=LC-ESI-ITFT
INSTRUMENT=LTQ Orbitrap XL Thermo Scientific
COLLISION_ENERGY=90 % (nominal)
FORMULA=C10H15O3PS2
PARENT=279.0273
SPLASH=splash10-0w4v-4900000000-4242341f14c2a2d8e3d8
NUM_PEAKS=30
COMPOUND_NAME=Fenthion
SPECTRUM_ID=MSBNK-UFZ-WANA086625AF82PH
ADDUCT=[M+H]+
MS_LEVEL=MS2
PRECURSOR_MZ=279.0273
IONMODE=positive
NOMINAL_MASS=278
PARENT_MASS=278.02002297
58.9951 114.0 
77.0389 261.0 
78.0467 304.0 
78.9947 264.0 
79.0546 202.0 
81.0703 67.0 
91.0547 948.0 
92.0623 116.0 
97.0111 740.0 
103.0547 211.0 
104.0625 193.0 
107.0496 99.0 
109.0112 284.0 
109.065 85.0 
110.019 999.0 
122.0191 514.0 
123.0266 45.0 
124.9827 185.0 
125.0425 793.0 
135.0267 46.0 
138.0138 224.0 
138.0501 64.0 
139.0218 180.0 
142.9933 155.0 
153.0106 319.0 
153.0376 969.0 
184.9826 69.0 
185.9907 964.0 
214.993 101.0 
216.0013 431.0 
END IONS

BEGIN IONS
SYNON=[2-(dimethylamino)-5,6-dimethylpyrimidin-4-yl] N,N-dimethylcarbamate
INCHIKEY=YFGYUFNIOHWBOB-UHFFFAOYSA-N
INCHI=InChI=1S/C11H18N4O2/c1-7-8(2)12-10(14(3)4)13-9(7)17-11(16)15(5)6/h1-6H3
SMILES=CN(C)C(=O)OC1=C(C)C(C)=NC(=N1)N(C)C
INSTRUMENT_TYPE=LC-ESI-ITFT
INSTRUMENT=LTQ Orbitrap XL Thermo Scientific
COLLISION_ENERGY=10 % (nominal)
FORMULA=C11H18N4O2
PARENT=239.1503
SPLASH=splash10-000i-0090000000-3b7358c926b300eea508
NUM_PEAKS=4
COMPOUND_NAME=Pirimicarb
SPECTRUM_ID=MSBNK-UFZ-WANA027101AD6CPH
ADDUCT=[M+H]+
MS_LEVEL=MS2
PRECURSOR_MZ=239.1503
IONMODE=positive
NOMINAL_MASS=238
PARENT_MASS=238.142975816
72.0442 6.0 
182.1286 8.0 
195.1605 4.0 
239.15 999.0 
END IONS

BEGIN IONS
SYNON=(3,5-Dimethyl-4-methylsulfanylphenyl) N-methylcarbamate
INCHIKEY=YFBPRJGDJKVWAH-UHFFFAOYSA-N
INCHI=InChI=1S/C11H15NO2S/c1-7-5-9(14-11(13)12-3)6-8(2)10(7)15-4/h5-6H,1-4H3,(H,12,13)
SMILES=CNC(=O)OC1=CC(C)=C(SC)C(C)=C1
INSTRUMENT_TYPE=LC-ESI-ITFT
INSTRUMENT=LTQ Orbitrap XL Thermo Scientific
COLLISION_ENERGY=35 (nominal)
FORMULA=C11H15NO2S
PARENT=226.0896
SPLASH=splash10-014i-0900000000-1b7534b20d53f4066cb4
NUM_PEAKS=4
COMPOUND_NAME=Methiocarb
SPECTRUM_ID=MSBNK-UFZ-UF405703
ADDUCT=[M+H]+
MS_LEVEL=MS2
PRECURSOR_MZ=226.0896
IONMODE=positive
NOMINAL_MASS=225
PARENT_MASS=225.0823
91.0542 12.0 
121.0647 26.0 
148.0755 16.0 
169.068 999.0 
END IONS

BEGIN IONS
SYNON=4-Dimethoxyphosphinothioyloxy-N,N-diethyl-6-methylpyrimidin-2-amine
INCHIKEY=QHOQHJPRIBSPCY-UHFFFAOYSA-N
INCHI=InChI=1S/C11H20N3O3PS/c1-6-14(7-2)11-12-9(3)8-10(13-11)17-18(19,15-4)16-5/h8H,6-7H2,1-5H3
SMILES=CCN(CC)C1=NC(C)=CC(OP(=S)(OC)OC)=N1
INSTRUMENT_TYPE=LC-ESI-ITFT
INSTRUMENT=LTQ Orbitrap XL Thermo Scientific
COLLISION_ENERGY=80 (nominal)
FORMULA=C11H20N3O3PS
PARENT=306.1036
SPLASH=splash10-0a4i-1900000000-306fdfc0a12c6815ddcd
NUM_PEAKS=22
COMPOUND_NAME=Pirimiphos-methyl
SPECTRUM_ID=MSBNK-UFZ-UF402802
ADDUCT=[M+H]+
MS_LEVEL=MS2
PRECURSOR_MZ=306.1036
IONMODE=positive
NOMINAL_MASS=305
PARENT_MASS=305.0963
78.9942 81.0 
84.0443 52.0 
95.0603 128.0 
96.9506 76.0 
100.0214 115.0 
108.0555 999.0 
109.0048 30.0 
109.0759 55.0 
114.9613 59.0 
123.0917 18.0 
124.9819 169.0 
127.0154 98.0 
136.0866 35.0 
142.9925 88.0 
151.0267 42.0 
153.1019 15.0 
154.1057 28.0 
164.1179 21.0 
168.1131 14.0 
169.0791 33.0 
170.0825 54.0 
220.0271 20.0 
END IONS

BEGIN IONS
INCHIKEY=RIZMRRKBZQXFOY-UHFFFAOYSA-N
INCHI=InChI=1S/C9H22O4P2S4/c1-5-10-14(16,11-6-2)18-9-19-15(17,12-7-3)13-8-4/h5-9H2,1-4H3
SMILES=CCOP(=S)(OCC)SCSP(=S)(OCC)OCC
INSTRUMENT_TYPE=LC-ESI-ITFT
INSTRUMENT=LTQ Orbitrap XL Thermo Scientific
COLLISION_ENERGY=55 (nominal)
FORMULA=C9H22O4P2S4
PARENT=384.9949
SPLASH=splash10-014j-0691000000-5db8ef20942945e5520e
NUM_PEAKS=12
COMPOUND_NAME=Ethion
SPECTRUM_ID=MSBNK-UFZ-UF402704
ADDUCT=[M+H]+
MS_LEVEL=MS2
PRECURSOR_MZ=384.9949
IONMODE=positive
NOMINAL_MASS=384
PARENT_MASS=383.9876
96.951 23.0 
124.9823 44.0 
142.9386 109.0 
153.0135 60.0 
170.9699 115.0 
199.0011 607.0 
215.0324 999.0 
230.9724 12.0 
261.0202 165.0 
294.945 81.0 
322.9764 170.0 
339.0078 36.0 
END IONS

BEGIN IONS
SYNON=ethyl 2-diethoxyphosphinothioyloxy-5-methylpyrazolo[1,5-a]pyrimidine-6-carboxylate
INCHIKEY=JOOMJVFZQRQWKR-UHFFFAOYSA-N
INCHI=InChI=1S/C14H20N3O5PS/c1-5-19-14(18)11-9-17-12(15-10(11)4)8-13(16-17)22-23(24,20-6-2)21-7-3/h8-9H,5-7H2,1-4H3
SMILES=CCOC(=O)C1=CN2N=C(OP(=S)(OCC)OCC)C=C2N=C1C
INSTRUMENT_TYPE=LC-ESI-ITFT
INSTRUMENT=LTQ Orbitrap XL Thermo Scientific
COLLISION_ENERGY=30 % (nominal)
FORMULA=C14H20N3O5PS
PARENT=374.0934
SPLASH=splash10-00di-0093000000-c77207d77854a74b9652
NUM_PEAKS=21
COMPOUND_NAME=Pyrazophos
SPECTRUM_ID=MSBNK-UFZ-WANA015305070APH
ADDUCT=[M+H]+
MS_LEVEL=MS2
PRECURSOR_MZ=374.0934
IONMODE=positive
NOMINAL_MASS=373
PARENT_MASS=373.08612837
113.9536 15.0 
170.0162 28.0 
176.0457 3.0 
183.0229 2.0 
192.0227 5.0 
194.0562 42.0 
205.0848 41.0 
210.0332 23.0 
211.0537 38.0 
222.0874 999.0 
223.0906 35.0 
236.049 56.0 
238.0646 265.0 
239.0683 9.0 
266.0962 8.0 
271.989 1.0 
300.0206 19.0 
318.0309 30.0 
328.0521 12.0 
346.0622 135.0 
374.0934 310.0 
END IONS

BEGIN IONS
SYNON=(3,5-dimethyl-4-methylsulfanylphenyl) N-methylcarbamate
INCHIKEY=YFBPRJGDJKVWAH-UHFFFAOYSA-N
INCHI=InChI=1S/C11H15NO2S/c1-7-5-9(14-11(13)12-3)6-8(2)10(7)15-4/h5-6H,1-4H3,(H,12,13)
SMILES=CNC(=O)OC1=CC(C)=C(SC)C(C)=C1
INSTRUMENT_TYPE=LC-ESI-ITFT
INSTRUMENT=LTQ Orbitrap XL Thermo Scientific
COLLISION_ENERGY=50 % (nominal)
FORMULA=C11H15NO2S
PARENT=226.0896
SPLASH=splash10-00di-0900000000-b5d8456a49bdc41dcab1
NUM_PEAKS=14
COMPOUND_NAME=Methiocarb
SPECTRUM_ID=MSBNK-UFZ-WANA048313D9F1PH
ADDUCT=[M+H]+
MS_LEVEL=MS2
PRECURSOR_MZ=226.0896
IONMODE=positive
NOMINAL_MASS=225
PARENT_MASS=225.08234972
77.0384 7.0 
91.0541 29.0 
93.0572 5.0 
93.0699 80.0 
106.0651 6.0 
107.0489 6.0 
108.0808 37.0 
121.0648 999.0 
122.0725 261.0 
123.0801 8.0 
144.0807 11.0 
153.0369 10.0 
154.0447 12.0 
169.0681 212.0 
END IONS

BEGIN IONS
SYNON=diethoxyphosphinothioylsulfanylmethylsulfanyl-diethoxy-sulfanylidene-lambda5-phosphane
INCHIKEY=RIZMRRKBZQXFOY-UHFFFAOYSA-N
INCHI=InChI=1S/C9H22O4P2S4/c1-5-10-14(16,11-6-2)18-9-19-15(17,12-7-3)13-8-4/h5-9H2,1-4H3
SMILES=CCOP(=S)(OCC)SCSP(=S)(OCC)OCC
INSTRUMENT_TYPE=LC-ESI-ITFT
INSTRUMENT=LTQ Orbitrap XL Thermo Scientific
COLLISION_ENERGY=10 % (nominal)
FORMULA=C9H22O4P2S4
PARENT=384.9949
SPLASH=splash10-0002-0920000000-ec3a1b56bca536955dbd
NUM_PEAKS=5
COMPOUND_NAME=Ethion
SPECTRUM_ID=MSBNK-UFZ-WANA018001AD6CPH
ADDUCT=[M+H]+
MS_LEVEL=MS2
PRECURSOR_MZ=384.9949
IONMODE=positive
NOMINAL_MASS=384
PARENT_MASS=383.987616444
75.0262 36.0 
153.0139 83.0 
170.9705 301.0 
199.0019 999.0 
215.0331 394.0 
END IONS

BEGIN IONS
SYNON=2-Dimethoxyphosphinothioylsulfanyl-N-methylacetamide
INCHIKEY=MCWXGJITAZMZEV-UHFFFAOYSA-N
INCHI=InChI=1S/C5H12NO3PS2/c1-6-5(7)4-12-10(11,8-2)9-3/h4H2,1-3H3,(H,6,7)
SMILES=CNC(=O)CSP(=S)(OC)OC
INSTRUMENT_TYPE=LC-ESI-ITFT
INSTRUMENT=LTQ Orbitrap XL Thermo Scientific
COLLISION_ENERGY=55 (nominal)
FORMULA=C5H12NO3PS2
PARENT=230.0069
SPLASH=splash10-0002-0900000000-c9796b2d455a7a39da1b
NUM_PEAKS=5
COMPOUND_NAME=Dimethoate
SPECTRUM_ID=MSBNK-UFZ-UF400304
ADDUCT=[M+H]+
MS_LEVEL=MS2
PRECURSOR_MZ=230.0069
IONMODE=positive
NOMINAL_MASS=229
PARENT_MASS=228.9996
88.0214 12.0 
124.9817 9.0 
170.9697 65.0 
197.9808 11.0 
198.9645 999.0 
END IONS

BEGIN IONS
SYNON=4-Dimethoxyphosphinothioyloxy-N,N-diethyl-6-methylpyrimidin-2-amine
INCHIKEY=QHOQHJPRIBSPCY-UHFFFAOYSA-N
INCHI=InChI=1S/C11H20N3O3PS/c1-6-14(7-2)11-12-9(3)8-10(13-11)17-18(19,15-4)16-5/h8H,6-7H2,1-5H3
SMILES=CCN(CC)C1=NC(C)=CC(OP(=S)(OC)OC)=N1
INSTRUMENT_TYPE=LC-ESI-ITFT
INSTRUMENT=LTQ Orbitrap XL Thermo Scientific
COLLISION_ENERGY=80 (nominal)
FORMULA=C11H20N3O3PS
PARENT=305.0958
SPLASH=splash10-0uxs-3900000000-264203b03133a5494446
NUM_PEAKS=8
COMPOUND_NAME=Pirimiphos-methyl
SPECTRUM_ID=MSBNK-UFZ-UF402818
ADDUCT=[M]+
MS_LEVEL=MS2
PRECURSOR_MZ=305.0958
IONMODE=positive
NOMINAL_MASS=305
PARENT_MASS=305.0963
84.0443 344.0 
96.9507 681.0 
98.984 125.0 
100.0215 999.0 
114.9613 528.0 
153.1019 245.0 
169.0794 770.0 
188.1163 150.0 
END IONS

BEGIN IONS
SYNON=dimethoxy-(3-methyl-4-methylsulfanylphenoxy)-sulfanylidene-lambda5-phosphane
INCHIKEY=PNVJTZOFSHSLTO-UHFFFAOYSA-N
INCHI=InChI=1S/C10H15O3PS2/c1-8-7-9(5-6-10(8)16-4)13-14(15,11-2)12-3/h5-7H,1-4H3
SMILES=COP(=S)(OC)OC1=CC=C(SC)C(C)=C1
INSTRUMENT_TYPE=LC-ESI-ITFT
INSTRUMENT=LTQ Orbitrap XL Thermo Scientific
COLLISION_ENERGY=70 % (nominal)
FORMULA=C10H15O3PS2
PARENT=279.0273
SPLASH=splash10-0uxr-2930000000-df615fbcb249cc91d470
NUM_PEAKS=48
COMPOUND_NAME=Fenthion
SPECTRUM_ID=MSBNK-UFZ-WANA0866213166PH
ADDUCT=[M+H]+
MS_LEVEL=MS2
PRECURSOR_MZ=279.0273
IONMODE=positive
NOMINAL_MASS=278
PARENT_MASS=278.02002297
53.0385 3.0 
58.9949 40.0 
62.0183 3.0 
77.0387 28.0 
78.0465 16.0 
78.9945 61.0 
79.0544 38.0 
81.07 8.0 
91.0544 184.0 
92.0622 16.0 
93.0701 77.0 
97.0109 230.0 
103.0544 78.0 
104.0623 74.0 
105.0335 11.0 
105.0701 16.0 
107.0494 17.0 
109.0109 40.0 
109.0651 40.0 
110.0187 74.0 
121.011 18.0 
122.0187 126.0 
123.0266 4.0 
124.9823 167.0 
125.0422 251.0 
135.0266 38.0 
136.0343 19.0 
137.0422 109.0 
138.0137 65.0 
138.0501 65.0 
139.0216 14.0 
142.993 141.0 
149.0238 8.0 
152.0297 9.0 
153.0103 56.0 
153.0372 968.0 
154.0449 31.0 
154.9721 3.0 
167.9795 5.0 
168.9875 75.0 
183.021 39.0 
184.9826 13.0 
185.9903 414.0 
200.006 124.0 
200.9774 63.0 
214.9932 22.0 
216.0009 999.0 
231.0244 39.0 
END IONS

BEGIN IONS
SYNON=4-Dimethoxyphosphinothioyloxy-N,N-diethyl-6-methylpyrimidin-2-amine
INCHIKEY=QHOQHJPRIBSPCY-UHFFFAOYSA-N
INCHI=InChI=1S/C11H20N3O3PS/c1-6-14(7-2)11-12-9(3)8-10(13-11)17-18(19,15-4)16-5/h8H,6-7H2,1-5H3
SMILES=CCN(CC)C1=NC(C)=CC(OP(=S)(OC)OC)=N1
INSTRUMENT_TYPE=LC-ESI-ITFT
INSTRUMENT=LTQ Orbitrap XL Thermo Scientific
COLLISION_ENERGY=35 (nominal)
FORMULA=C11H20N3O3PS
PARENT=305.0958
SPLASH=splash10-0gb9-0900000000-092c7381e77775c2bc1b
NUM_PEAKS=5
COMPOUND_NAME=Pirimiphos-methyl
SPECTRUM_ID=MSBNK-UFZ-UF402819
ADDUCT=[M]+
MS_LEVEL=MS2
PRECURSOR_MZ=305.0958
IONMODE=positive
NOMINAL_MASS=305
PARENT_MASS=305.0963
100.0213 2.0 
153.1021 510.0 
169.0793 999.0 
188.078 2.0 
188.1165 2.0 
END IONS

BEGIN IONS
SYNON=2,2-Dichloroethenyl dimethyl phosphate
INCHIKEY=OEBRKCOSUFCWJD-UHFFFAOYSA-N
INCHI=InChI=1S/C4H7Cl2O4P/c1-8-11(7,9-2)10-3-4(5)6/h3H,1-2H3
SMILES=COP(=O)(OC)OC=C(Cl)Cl
INSTRUMENT_TYPE=LC-ESI-ITFT
INSTRUMENT=LTQ Orbitrap XL Thermo Scientific
COLLISION_ENERGY=55 (nominal)
FORMULA=C4H7Cl2O4P
PARENT=220.9532
SPLASH=splash10-052f-0900000000-347f95538a81149f9317
NUM_PEAKS=5
COMPOUND_NAME=Dichlorvos
SPECTRUM_ID=MSBNK-UFZ-UF400104
ADDUCT=[M+H]+
MS_LEVEL=MS2
PRECURSOR_MZ=220.9532
IONMODE=positive
NOMINAL_MASS=220
PARENT_MASS=219.9459
78.9943 30.0 
109.0048 990.0 
127.0154 498.0 
144.9815 999.0 
190.9426 5.0 
END IONS

BEGIN IONS
SYNON=[2-Chloro-1-(2,4-dichlorophenyl)ethenyl] diethyl phosphate
INCHIKEY=FSAVDKDHPDSCTO-UHFFFAOYSA-N
INCHI=InChI=1S/C12H14Cl3O4P/c1-3-17-20(16,18-4-2)19-12(8-13)10-6-5-9(14)7-11(10)15/h5-8H,3-4H2,1-2H3
SMILES=CCOP(=O)(OCC)OC(=CCl)C1=CC=C(Cl)C=C1Cl
INSTRUMENT_TYPE=LC-ESI-ITFT
INSTRUMENT=LTQ Orbitrap XL Thermo Scientific
COLLISION_ENERGY=55 (nominal)
FORMULA=C12H14Cl3O4P
PARENT=358.9768
SPLASH=splash10-0a4i-0902000000-10232107b9bc370b34c4
NUM_PEAKS=5
COMPOUND_NAME=Chlorfenvinphos
SPECTRUM_ID=MSBNK-UFZ-UF403804
ADDUCT=[M+H]+
MS_LEVEL=MS2
PRECURSOR_MZ=358.9768
IONMODE=positive
NOMINAL_MASS=358
PARENT_MASS=357.9695
98.9841 87.0 
127.0153 228.0 
155.0466 999.0 
204.9375 61.0 
330.9456 408.0 
END IONS

BEGIN IONS
SYNON=[2-(dimethylamino)-5,6-dimethylpyrimidin-4-yl] N,N-dimethylcarbamate
INCHIKEY=YFGYUFNIOHWBOB-UHFFFAOYSA-N
INCHI=InChI=1S/C11H18N4O2/c1-7-8(2)12-10(14(3)4)13-9(7)17-11(16)15(5)6/h1-6H3
SMILES=CN(C)C(=O)OC1=C(C)C(C)=NC(=N1)N(C)C
INSTRUMENT_TYPE=LC-ESI-ITFT
INSTRUMENT=LTQ Orbitrap XL Thermo Scientific
COLLISION_ENERGY=40 % (nominal)
FORMULA=C11H18N4O2
PARENT=239.1503
SPLASH=splash10-00e9-9810000000-964b836471e773c88bb9
NUM_PEAKS=8
COMPOUND_NAME=Pirimicarb
SPECTRUM_ID=MSBNK-UFZ-WANA027111C9CFPH
ADDUCT=[M+H]+
MS_LEVEL=MS2
PRECURSOR_MZ=239.1503
IONMODE=positive
NOMINAL_MASS=238
PARENT_MASS=238.142975816
72.0443 999.0 
85.0759 7.0 
137.071 8.0 
150.1023 7.0 
166.0977 2.0 
182.1288 838.0 
195.1603 45.0 
239.1502 205.0 
END IONS

BEGIN IONS
SYNON=ethyl 2-diethoxyphosphinothioyloxy-5-methylpyrazolo[1,5-a]pyrimidine-6-carboxylate
INCHIKEY=JOOMJVFZQRQWKR-UHFFFAOYSA-N
INCHI=InChI=1S/C14H20N3O5PS/c1-5-19-14(18)11-9-17-12(15-10(11)4)8-13(16-17)22-23(24,20-6-2)21-7-3/h8-9H,5-7H2,1-4H3
SMILES=CCOC(=O)C1=CN2N=C(OP(=S)(OCC)OCC)C=C2N=C1C
INSTRUMENT_TYPE=LC-ESI-ITFT
INSTRUMENT=LTQ Orbitrap XL Thermo Scientific
COLLISION_ENERGY=90 % (nominal)
FORMULA=C14H20N3O5PS
PARENT=374.0934
SPLASH=splash10-01oy-2900000000-4664b65a47186c86113c
NUM_PEAKS=37
COMPOUND_NAME=Pyrazophos
SPECTRUM_ID=MSBNK-UFZ-WANA015325AF82PH
ADDUCT=[M+H]+
MS_LEVEL=MS2
PRECURSOR_MZ=374.0934
IONMODE=positive
NOMINAL_MASS=373
PARENT_MASS=373.08612837
64.9787 147.0 
66.0339 38.0 
68.0132 34.0 
68.0495 10.0 
78.0339 34.0 
80.0132 25.0 
80.9738 17.0 
82.0289 29.0 
95.0607 40.0 
96.951 504.0 
98.9844 60.0 
105.0451 33.0 
106.0288 12.0 
109.0399 25.0 
110.0352 15.0 
112.0394 14.0 
113.9538 176.0 
114.9616 600.0 
120.0559 268.0 
122.0716 25.0 
124.0507 7.0 
131.0483 27.0 
133.0399 21.0 
133.064 20.0 
137.0474 19.0 
160.0508 14.0 
165.0122 95.0 
175.0378 16.0 
177.0537 405.0 
181.007 129.0 
183.0227 216.0 
192.023 6.0 
194.0565 999.0 
199.0165 11.0 
205.085 8.0 
240.0167 23.0 
256.0114 7.0 
END IONS

BEGIN IONS
SYNON=(3,5-dimethyl-4-methylsulfanylphenyl) N-methylcarbamate
INCHIKEY=YFBPRJGDJKVWAH-UHFFFAOYSA-N
INCHI=InChI=1S/C11H15NO2S/c1-7-5-9(14-11(13)12-3)6-8(2)10(7)15-4/h5-6H,1-4H3,(H,12,13)
SMILES=CNC(=O)OC1=CC(C)=C(SC)C(C)=C1
INSTRUMENT_TYPE=LC-ESI-ITFT
INSTRUMENT=LTQ Orbitrap XL Thermo Scientific
COLLISION_ENERGY=30 % (nominal)
FORMULA=C11H15NO2S
PARENT=226.0896
SPLASH=splash10-014i-0900000000-b59ca22e6fc001753981
NUM_PEAKS=5
COMPOUND_NAME=Methiocarb
SPECTRUM_ID=MSBNK-UFZ-WANA048305070APH
ADDUCT=[M+H]+
MS_LEVEL=MS2
PRECURSOR_MZ=226.0896
IONMODE=positive
NOMINAL_MASS=225
PARENT_MASS=225.08234972
91.0543 5.0 
93.07 18.0 
121.0649 397.0 
122.0728 45.0 
169.0684 999.0 
END IONS

BEGIN IONS
INCHIKEY=RIZMRRKBZQXFOY-UHFFFAOYSA-N
INCHI=InChI=1S/C9H22O4P2S4/c1-5-10-14(16,11-6-2)18-9-19-15(17,12-7-3)13-8-4/h5-9H2,1-4H3
SMILES=CCOP(=S)(OCC)SCSP(=S)(OCC)OCC
INSTRUMENT_TYPE=LC-ESI-ITFT
INSTRUMENT=LTQ Orbitrap XL Thermo Scientific
COLLISION_ENERGY=80 (nominal)
FORMULA=C9H22O4P2S4
PARENT=384.9949
SPLASH=splash10-01ot-9700000000-ab9c668fa27781929a0f
NUM_PEAKS=5
COMPOUND_NAME=Ethion
SPECTRUM_ID=MSBNK-UFZ-UF402702
ADDUCT=[M+H]+
MS_LEVEL=MS2
PRECURSOR_MZ=384.9949
IONMODE=positive
NOMINAL_MASS=384
PARENT_MASS=383.9876
75.0262 56.0 
96.9507 999.0 
114.9613 768.0 
142.9384 107.0 
198.9069 46.0 
END IONS

BEGIN IONS
SYNON=Diethoxy-(6-methyl-2-propan-2-ylpyrimidin-4-yl)oxy-sulfanylidene-{5}-phosphane
INCHIKEY=FHIVAFMUCKRCQO-UHFFFAOYSA-N
INCHI=InChI=1S/C12H21N2O3PS/c1-6-15-18(19,16-7-2)17-11-8-10(5)13-12(14-11)9(3)4/h8-9H,6-7H2,1-5H3
SMILES=CCOP(=S)(OCC)OC1=NC(=NC(C)=C1)C(C)C
INSTRUMENT_TYPE=LC-ESI-ITFT
INSTRUMENT=LTQ Orbitrap XL Thermo Scientific
COLLISION_ENERGY=35 (nominal)
FORMULA=C12H21N2O3PS
PARENT=305.1083
SPLASH=splash10-0gb9-0900000000-092c7381e77775c2bc1b
NUM_PEAKS=5
COMPOUND_NAME=Diazinon
SPECTRUM_ID=MSBNK-UFZ-UF400603
ADDUCT=[M+H]+
MS_LEVEL=MS2
PRECURSOR_MZ=305.1083
IONMODE=positive
NOMINAL_MASS=304
PARENT_MASS=304.1011
100.0213 2.0 
153.1021 510.0 
169.0793 999.0 
188.078 2.0 
188.1165 2.0 
END IONS

BEGIN IONS
SYNON=[2-chloro-1-(2,4-dichlorophenyl)ethenyl] diethyl phosphate
INCHIKEY=FSAVDKDHPDSCTO-UHFFFAOYSA-N
INCHI=InChI=1S/C12H14Cl3O4P/c1-3-17-20(16,18-4-2)19-12(8-13)10-6-5-9(14)7-11(10)15/h5-8H,3-4H2,1-2H3
SMILES=CCOP(=O)(OCC)OC(=CCl)C1=C(Cl)C=C(Cl)C=C1
INSTRUMENT_TYPE=LC-ESI-ITFT
INSTRUMENT=LTQ Orbitrap XL Thermo Scientific
COLLISION_ENERGY=90 % (nominal)
FORMULA=C12H14Cl3O4P
PARENT=358.9768
SPLASH=splash10-014j-7900000000-5568da1d9bd418fe657c
NUM_PEAKS=6
COMPOUND_NAME=Chlorfenvinphos
SPECTRUM_ID=MSBNK-UFZ-WANA027025AF82PH
ADDUCT=[M+H]+
MS_LEVEL=MS2
PRECURSOR_MZ=358.9768
IONMODE=positive
NOMINAL_MASS=358
PARENT_MASS=357.969528598
80.9739 26.0 
98.9847 970.0 
123.0001 15.0 
132.9846 100.0 
168.9614 101.0 
169.9693 999.0 
END IONS

BEGIN IONS
SYNON=4-Dimethoxyphosphinothioyloxy-N,N-diethyl-6-methylpyrimidin-2-amine
INCHIKEY=QHOQHJPRIBSPCY-UHFFFAOYSA-N
INCHI=InChI=1S/C11H20N3O3PS/c1-6-14(7-2)11-12-9(3)8-10(13-11)17-18(19,15-4)16-5/h8H,6-7H2,1-5H3
SMILES=CCN(CC)C1=NC(C)=CC(OP(=S)(OC)OC)=N1
INSTRUMENT_TYPE=LC-ESI-ITFT
INSTRUMENT=LTQ Orbitrap XL Thermo Scientific
COLLISION_ENERGY=55 (nominal)
FORMULA=C11H20N3O3PS
PARENT=306.1036
SPLASH=splash10-0bt9-1900000000-fb3cb2d4715d6172c41e
NUM_PEAKS=32
COMPOUND_NAME=Pirimiphos-methyl
SPECTRUM_ID=MSBNK-UFZ-UF402801
ADDUCT=[M+H]+
MS_LEVEL=MS2
PRECURSOR_MZ=306.1036
IONMODE=positive
NOMINAL_MASS=305
PARENT_MASS=305.0963
78.9943 17.0 
84.0445 17.0 
95.0603 362.0 
96.9507 71.0 
100.0216 36.0 
108.0555 999.0 
109.0049 22.0 
109.0759 103.0 
114.9613 46.0 
123.0917 58.0 
124.982 189.0 
127.0155 36.0 
136.0868 248.0 
142.9926 96.0 
151.0267 39.0 
153.1023 60.0 
154.0995 6.0 
154.1056 100.0 
164.1182 931.0 
168.1132 39.0 
169.0794 109.0 
170.0827 199.0 
179.0581 66.0 
196.1441 27.0 
207.0896 43.0 
220.0273 23.0 
233.0143 8.0 
246.0462 46.0 
250.0412 18.0 
274.0773 19.0 
278.0723 57.0 
306.1037 108.0 
END IONS

BEGIN IONS
SYNON=(3,5-dimethyl-4-methylsulfanylphenyl) N-methylcarbamate
INCHIKEY=YFBPRJGDJKVWAH-UHFFFAOYSA-N
INCHI=InChI=1S/C11H15NO2S/c1-7-5-9(14-11(13)12-3)6-8(2)10(7)15-4/h5-6H,1-4H3,(H,12,13)
SMILES=CNC(=O)OC1=CC(C)=C(SC)C(C)=C1
INSTRUMENT_TYPE=LC-ESI-ITFT
INSTRUMENT=LTQ Orbitrap XL Thermo Scientific
COLLISION_ENERGY=60 % (nominal)
FORMULA=C11H15NO2S
PARENT=226.0896
SPLASH=splash10-00di-1900000000-029e6332964b626a01bd
NUM_PEAKS=21
COMPOUND_NAME=Methiocarb
SPECTRUM_ID=MSBNK-UFZ-WANA0483155BE0PH
ADDUCT=[M+H]+
MS_LEVEL=MS2
PRECURSOR_MZ=226.0896
IONMODE=positive
NOMINAL_MASS=225
PARENT_MASS=225.08234972
77.0387 32.0 
79.0542 4.0 
80.0498 4.0 
82.0652 5.0 
91.0544 78.0 
92.0497 14.0 
93.0575 39.0 
93.0701 156.0 
106.0654 34.0 
107.0493 18.0 
108.081 130.0 
116.0497 7.0 
117.0574 4.0 
118.0653 14.0 
121.065 999.0 
122.0728 402.0 
123.0806 8.0 
144.081 45.0 
153.0372 11.0 
154.0449 21.0 
169.0685 55.0 
END IONS

BEGIN IONS
SYNON=dimethoxy-(3-methyl-4-methylsulfanylphenoxy)-sulfanylidene-lambda5-phosphane
INCHIKEY=PNVJTZOFSHSLTO-UHFFFAOYSA-N
INCHI=InChI=1S/C10H15O3PS2/c1-8-7-9(5-6-10(8)16-4)13-14(15,11-2)12-3/h5-7H,1-4H3
SMILES=COP(=S)(OC)OC1=CC=C(SC)C(C)=C1
INSTRUMENT_TYPE=LC-ESI-ITFT
INSTRUMENT=LTQ Orbitrap XL Thermo Scientific
COLLISION_ENERGY=80 % (nominal)
FORMULA=C10H15O3PS2
PARENT=279.0273
SPLASH=splash10-0uy3-2920000000-fe57334dcfa4aa630237
NUM_PEAKS=45
COMPOUND_NAME=Fenthion
SPECTRUM_ID=MSBNK-UFZ-WANA0866237762PH
ADDUCT=[M+H]+
MS_LEVEL=MS2
PRECURSOR_MZ=279.0273
IONMODE=positive
NOMINAL_MASS=278
PARENT_MASS=278.02002297
53.0386 10.0 
58.995 54.0 
62.0185 12.0 
77.0388 82.0 
78.0466 71.0 
78.9947 119.0 
79.0545 104.0 
81.0702 27.0 
91.0546 385.0 
92.0624 24.0 
93.0703 97.0 
97.0111 430.0 
103.0547 109.0 
104.0625 114.0 
105.0338 26.0 
105.0703 36.0 
107.0495 35.0 
109.0111 97.0 
109.0652 77.0 
110.0189 319.0 
121.0111 71.0 
122.019 271.0 
123.0265 23.0 
124.9826 179.0 
125.0425 483.0 
135.0268 55.0 
136.0347 24.0 
137.0426 87.0 
138.0139 121.0 
138.0503 69.0 
142.9932 160.0 
152.0294 21.0 
153.0106 128.0 
153.0375 999.0 
154.0453 39.0 
154.9717 10.0 
167.98 25.0 
168.9877 96.0 
183.0213 56.0 
184.9826 33.0 
185.9907 717.0 
200.0063 103.0 
200.9778 108.0 
214.9936 58.0 
216.0013 738.0 
END IONS

BEGIN IONS
SYNON=2,2-Dichloroethenyl dimethyl phosphate
INCHIKEY=OEBRKCOSUFCWJD-UHFFFAOYSA-N
INCHI=InChI=1S/C4H7Cl2O4P/c1-8-11(7,9-2)10-3-4(5)6/h3H,1-2H3
SMILES=COP(=O)(OC)OC=C(Cl)Cl
INSTRUMENT_TYPE=LC-ESI-ITFT
INSTRUMENT=LTQ Orbitrap XL Thermo Scientific
COLLISION_ENERGY=80 (nominal)
FORMULA=C4H7Cl2O4P
PARENT=220.9532
SPLASH=splash10-004i-2900000000-c792ae223d6916b397d8
NUM_PEAKS=9
COMPOUND_NAME=Dichlorvos
SPECTRUM_ID=MSBNK-UFZ-UF400102
ADDUCT=[M+H]+
MS_LEVEL=MS2
PRECURSOR_MZ=220.9532
IONMODE=positive
NOMINAL_MASS=220
PARENT_MASS=219.9459
76.9788 8.0 
78.9943 207.0 
94.9893 20.0 
96.9604 48.0 
97.0049 19.0 
109.0048 206.0 
112.9998 82.0 
127.0154 999.0 
130.9659 8.0 
END IONS

BEGIN IONS
SYNON=2,2-Dichloroethenyl dimethyl phosphate
INCHIKEY=OEBRKCOSUFCWJD-UHFFFAOYSA-N
INCHI=InChI=1S/C4H7Cl2O4P/c1-8-11(7,9-2)10-3-4(5)6/h3H,1-2H3
SMILES=COP(=O)(OC)OC=C(Cl)Cl
INSTRUMENT_TYPE=LC-ESI-ITFT
INSTRUMENT=LTQ Orbitrap XL Thermo Scientific
COLLISION_ENERGY=55 (nominal)
FORMULA=C4H7Cl2O4P
PARENT=220.9532
SPLASH=splash10-004i-0900000000-cc2455ee44a59b12a9f4
NUM_PEAKS=11
COMPOUND_NAME=Dichlorvos
SPECTRUM_ID=MSBNK-UFZ-UF400101
ADDUCT=[M+H]+
MS_LEVEL=MS2
PRECURSOR_MZ=220.9532
IONMODE=positive
NOMINAL_MASS=220
PARENT_MASS=219.9459
76.979 2.0 
78.9942 64.0 
94.9891 4.0 
96.9603 27.0 
97.0045 4.0 
109.0048 242.0 
112.9997 16.0 
127.0153 999.0 
130.966 3.0 
144.9815 22.0 
220.953 23.0 
END IONS

BEGIN IONS
SYNON=4-Dimethoxyphosphinothioyloxy-N,N-diethyl-6-methylpyrimidin-2-amine
INCHIKEY=QHOQHJPRIBSPCY-UHFFFAOYSA-N
INCHI=InChI=1S/C11H20N3O3PS/c1-6-14(7-2)11-12-9(3)8-10(13-11)17-18(19,15-4)16-5/h8H,6-7H2,1-5H3
SMILES=CCN(CC)C1=NC(C)=CC(OP(=S)(OC)OC)=N1
INSTRUMENT_TYPE=LC-ESI-ITFT
INSTRUMENT=LTQ Orbitrap XL Thermo Scientific
COLLISION_ENERGY=55 (nominal)
FORMULA=C11H20N3O3PS
PARENT=305.0958
SPLASH=splash10-0gb9-1900000000-1a31246822ad300b41df
NUM_PEAKS=8
COMPOUND_NAME=Pirimiphos-methyl
SPECTRUM_ID=MSBNK-UFZ-UF402817
ADDUCT=[M]+
MS_LEVEL=MS2
PRECURSOR_MZ=305.0958
IONMODE=positive
NOMINAL_MASS=305
PARENT_MASS=305.0963
84.0444 44.0 
96.9507 219.0 
98.9841 10.0 
100.0214 68.0 
114.9613 163.0 
153.1021 524.0 
169.0794 999.0 
188.0781 7.0 
END IONS

BEGIN IONS
SYNON=2-Dimethoxyphosphinothioylsulfanyl-N-methylacetamide
INCHIKEY=MCWXGJITAZMZEV-UHFFFAOYSA-N
INCHI=InChI=1S/C5H12NO3PS2/c1-6-5(7)4-12-10(11,8-2)9-3/h4H2,1-3H3,(H,6,7)
SMILES=CNC(=O)CSP(=S)(OC)OC
INSTRUMENT_TYPE=LC-ESI-ITFT
INSTRUMENT=LTQ Orbitrap XL Thermo Scientific
COLLISION_ENERGY=55 (nominal)
FORMULA=C5H12NO3PS2
PARENT=230.0069
SPLASH=splash10-00di-0900000000-74606d7ef1ee58a3906e
NUM_PEAKS=11
COMPOUND_NAME=Dimethoate
SPECTRUM_ID=MSBNK-UFZ-UF400301
ADDUCT=[M+H]+
MS_LEVEL=MS2
PRECURSOR_MZ=230.0069
IONMODE=positive
NOMINAL_MASS=229
PARENT_MASS=228.9996
78.9942 80.0 
88.0215 74.0 
93.01 25.0 
110.9661 14.0 
123.9979 26.0 
124.9819 999.0 
128.977 9.0 
142.9925 483.0 
156.9541 111.0 
170.9697 125.0 
198.965 12.0 
END IONS

BEGIN IONS
SYNON=diethoxy-(6-methyl-2-propan-2-ylpyrimidin-4-yl)oxy-sulfanylidene-lambda5-phosphane
INCHIKEY=FHIVAFMUCKRCQO-UHFFFAOYSA-N
INCHI=InChI=1S/C12H21N2O3PS/c1-6-15-18(19,16-7-2)17-11-8-10(5)13-12(14-11)9(3)4/h8-9H,6-7H2,1-5H3
SMILES=CCOP(=S)(OCC)OC1=CC(C)=NC(=N1)C(C)C
INSTRUMENT_TYPE=LC-ESI-ITFT
INSTRUMENT=LTQ Orbitrap XL Thermo Scientific
COLLISION_ENERGY=70 % (nominal)
FORMULA=C12H21N2O3PS
PARENT=305.1083
SPLASH=splash10-0gb9-2900000000-94adc3dfa931b353225c
NUM_PEAKS=19
COMPOUND_NAME=Diazinon
SPECTRUM_ID=MSBNK-UFZ-WANA0033213166PH
ADDUCT=[M+H]+
MS_LEVEL=MS2
PRECURSOR_MZ=305.1083
IONMODE=positive
NOMINAL_MASS=304
PARENT_MASS=304.101050162
58.9947 4.0 
70.065 96.0 
80.9737 11.0 
84.0444 236.0 
90.9944 5.0 
96.9507 404.0 
100.0215 376.0 
109.0049 58.0 
110.9664 7.0 
114.9613 305.0 
124.982 8.0 
128.0524 2.0 
128.9769 5.0 
152.0529 2.0 
153.1022 505.0 
154.0559 11.0 
167.0641 4.0 
168.0724 2.0 
169.0794 999.0 
END IONS

